*Heading
 Gregoire 3PB CDM UMAT
** Job name: Gregoire_3PB Model name: Gregoire_3PB
** Generated by: Abaqus/CAE 2024
*Preprint, echo=NO, model=NO, history=NO, contact=NO
**
** PARTS
**
*Part, name=Beam2D
*Node
      1,         300.,         100.
      2,         300.,           0.
      3,         350.,           0.
      4,         350.,         100.
      5,         200.,         100.
      6,         200.,           0.
      7,      178.125,         100.
      8,      178.125,           0.
      9,      171.875,           0.
     10,      171.875,         100.
     11,         150.,         100.
     12,         150.,           0.
     13,          50.,         100.
     14,          50.,           0.
     15,           0.,         100.
     16,           0.,           0.
     17,       173.75,           0.
     18,       173.75,          20.
     19,       176.25,          20.
     20,       176.25,           0.
     21,         300.,        98.75
     22,         300.,         97.5
     23,         300.,        96.25
     24,         300.,          95.
     25,         300.,        93.75
     26,         300.,         92.5
     27,         300.,        91.25
     28,         300.,          90.
     29,         300.,        88.75
     30,         300.,         87.5
     31,         300.,        86.25
     32,         300.,          85.
     33,         300.,        83.75
     34,         300.,         82.5
     35,         300.,        81.25
     36,         300.,          80.
     37,         300.,        78.75
     38,         300.,         77.5
     39,         300.,        76.25
     40,         300.,          75.
     41,         300.,        73.75
     42,         300.,         72.5
     43,         300.,        71.25
     44,         300.,          70.
     45,         300.,        68.75
     46,         300.,         67.5
     47,         300.,        66.25
     48,         300.,          65.
     49,         300.,        63.75
     50,         300.,         62.5
     51,         300.,        61.25
     52,         300.,          60.
     53,         300.,        58.75
     54,         300.,         57.5
     55,         300.,        56.25
     56,         300.,          55.
     57,         300.,        53.75
     58,         300.,         52.5
     59,         300.,        51.25
     60,         300.,          50.
     61,         300.,        48.75
     62,         300.,         47.5
     63,         300.,        46.25
     64,         300.,          45.
     65,         300.,        43.75
     66,         300.,         42.5
     67,         300.,        41.25
     68,         300.,          40.
     69,         300.,        38.75
     70,         300.,         37.5
     71,         300.,        36.25
     72,         300.,          35.
     73,         300.,        33.75
     74,         300.,         32.5
     75,         300.,        31.25
     76,         300.,          30.
     77,         300.,        28.75
     78,         300.,         27.5
     79,         300.,        26.25
     80,         300.,          25.
     81,         300.,        23.75
     82,         300.,         22.5
     83,         300.,        21.25
     84,         300.,          20.
     85,         300.,        18.75
     86,         300.,         17.5
     87,         300.,        16.25
     88,         300.,          15.
     89,         300.,        13.75
     90,         300.,         12.5
     91,         300.,        11.25
     92,         300.,          10.
     93,         300.,         8.75
     94,         300.,          7.5
     95,         300.,         6.25
     96,         300.,           5.
     97,         300.,         3.75
     98,         300.,          2.5
     99,         300.,         1.25
    100,       306.25,           0.
    101,        312.5,           0.
    102,       318.75,           0.
    103,         325.,           0.
    104,       331.25,           0.
    105,        337.5,           0.
    106,       343.75,           0.
    107,         350.,         1.25
    108,         350.,          2.5
    109,         350.,         3.75
    110,         350.,           5.
    111,         350.,         6.25
    112,         350.,          7.5
    113,         350.,         8.75
    114,         350.,          10.
    115,         350.,        11.25
    116,         350.,         12.5
    117,         350.,        13.75
    118,         350.,          15.
    119,         350.,        16.25
    120,         350.,         17.5
    121,         350.,        18.75
    122,         350.,          20.
    123,         350.,        21.25
    124,         350.,         22.5
    125,         350.,        23.75
    126,         350.,          25.
    127,         350.,        26.25
    128,         350.,         27.5
    129,         350.,        28.75
    130,         350.,          30.
    131,         350.,        31.25
    132,         350.,         32.5
    133,         350.,        33.75
    134,         350.,          35.
    135,         350.,        36.25
    136,         350.,         37.5
    137,         350.,        38.75
    138,         350.,          40.
    139,         350.,        41.25
    140,         350.,         42.5
    141,         350.,        43.75
    142,         350.,          45.
    143,         350.,        46.25
    144,         350.,         47.5
    145,         350.,        48.75
    146,         350.,          50.
    147,         350.,        51.25
    148,         350.,         52.5
    149,         350.,        53.75
    150,         350.,          55.
    151,         350.,        56.25
    152,         350.,         57.5
    153,         350.,        58.75
    154,         350.,          60.
    155,         350.,        61.25
    156,         350.,         62.5
    157,         350.,        63.75
    158,         350.,          65.
    159,         350.,        66.25
    160,         350.,         67.5
    161,         350.,        68.75
    162,         350.,          70.
    163,         350.,        71.25
    164,         350.,         72.5
    165,         350.,        73.75
    166,         350.,          75.
    167,         350.,        76.25
    168,         350.,         77.5
    169,         350.,        78.75
    170,         350.,          80.
    171,         350.,        81.25
    172,         350.,         82.5
    173,         350.,        83.75
    174,         350.,          85.
    175,         350.,        86.25
    176,         350.,         87.5
    177,         350.,        88.75
    178,         350.,          90.
    179,         350.,        91.25
    180,         350.,         92.5
    181,         350.,        93.75
    182,         350.,          95.
    183,         350.,        96.25
    184,         350.,         97.5
    185,         350.,        98.75
    186,       343.75,         100.
    187,        337.5,         100.
    188,       331.25,         100.
    189,         325.,         100.
    190,       318.75,         100.
    191,        312.5,         100.
    192,       306.25,         100.
    193,         200.,        98.75
    194,         200.,         97.5
    195,         200.,        96.25
    196,         200.,          95.
    197,         200.,        93.75
    198,         200.,         92.5
    199,         200.,        91.25
    200,         200.,          90.
    201,         200.,        88.75
    202,         200.,         87.5
    203,         200.,        86.25
    204,         200.,          85.
    205,         200.,        83.75
    206,         200.,         82.5
    207,         200.,        81.25
    208,         200.,          80.
    209,         200.,        78.75
    210,         200.,         77.5
    211,         200.,        76.25
    212,         200.,          75.
    213,         200.,        73.75
    214,         200.,         72.5
    215,         200.,        71.25
    216,         200.,          70.
    217,         200.,        68.75
    218,         200.,         67.5
    219,         200.,        66.25
    220,         200.,          65.
    221,         200.,        63.75
    222,         200.,         62.5
    223,         200.,        61.25
    224,         200.,          60.
    225,         200.,        58.75
    226,         200.,         57.5
    227,         200.,        56.25
    228,         200.,          55.
    229,         200.,        53.75
    230,         200.,         52.5
    231,         200.,        51.25
    232,         200.,          50.
    233,         200.,        48.75
    234,         200.,         47.5
    235,         200.,        46.25
    236,         200.,          45.
    237,         200.,        43.75
    238,         200.,         42.5
    239,         200.,        41.25
    240,         200.,          40.
    241,         200.,        38.75
    242,         200.,         37.5
    243,         200.,        36.25
    244,         200.,          35.
    245,         200.,        33.75
    246,         200.,         32.5
    247,         200.,        31.25
    248,         200.,          30.
    249,         200.,        28.75
    250,         200.,         27.5
    251,         200.,        26.25
    252,         200.,          25.
    253,         200.,        23.75
    254,         200.,         22.5
    255,         200.,        21.25
    256,         200.,          20.
    257,         200.,        18.75
    258,         200.,         17.5
    259,         200.,        16.25
    260,         200.,          15.
    261,         200.,        13.75
    262,         200.,         12.5
    263,         200.,        11.25
    264,         200.,          10.
    265,         200.,         8.75
    266,         200.,          7.5
    267,         200.,         6.25
    268,         200.,           5.
    269,         200.,         3.75
    270,         200.,          2.5
    271,         200.,         1.25
    272,       206.25,           0.
    273,        212.5,           0.
    274,       218.75,           0.
    275,         225.,           0.
    276,       231.25,           0.
    277,        237.5,           0.
    278,       243.75,           0.
    279,         250.,           0.
    280,       256.25,           0.
    281,        262.5,           0.
    282,       268.75,           0.
    283,         275.,           0.
    284,       281.25,           0.
    285,        287.5,           0.
    286,       293.75,           0.
    287,       293.75,         100.
    288,        287.5,         100.
    289,       281.25,         100.
    290,         275.,         100.
    291,       268.75,         100.
    292,        262.5,         100.
    293,       256.25,         100.
    294,         250.,         100.
    295,       243.75,         100.
    296,        237.5,         100.
    297,       231.25,         100.
    298,         225.,         100.
    299,       218.75,         100.
    300,        212.5,         100.
    301,       206.25,         100.
    302,   198.784729,         100.
    303,   197.569443,         100.
    304,   196.354172,         100.
    305,   195.138885,         100.
    306,   193.923615,         100.
    307,   192.708328,         100.
    308,   191.493057,         100.
    309,   190.277771,         100.
    310,     189.0625,         100.
    311,   187.847229,         100.
    312,   186.631943,         100.
    313,   185.416672,         100.
    314,   184.201385,         100.
    315,   182.986115,         100.
    316,   181.770828,         100.
    317,   180.555557,         100.
    318,   179.340271,         100.
    319,      178.125,        98.75
    320,      178.125,         97.5
    321,      178.125,        96.25
    322,      178.125,          95.
    323,      178.125,        93.75
    324,      178.125,         92.5
    325,      178.125,        91.25
    326,      178.125,          90.
    327,      178.125,        88.75
    328,      178.125,         87.5
    329,      178.125,        86.25
    330,      178.125,          85.
    331,      178.125,        83.75
    332,      178.125,         82.5
    333,      178.125,        81.25
    334,      178.125,          80.
    335,      178.125,        78.75
    336,      178.125,         77.5
    337,      178.125,        76.25
    338,      178.125,          75.
    339,      178.125,        73.75
    340,      178.125,         72.5
    341,      178.125,        71.25
    342,      178.125,          70.
    343,      178.125,        68.75
    344,      178.125,         67.5
    345,      178.125,        66.25
    346,      178.125,          65.
    347,      178.125,        63.75
    348,      178.125,         62.5
    349,      178.125,        61.25
    350,      178.125,          60.
    351,      178.125,        58.75
    352,      178.125,         57.5
    353,      178.125,        56.25
    354,      178.125,          55.
    355,      178.125,        53.75
    356,      178.125,         52.5
    357,      178.125,        51.25
    358,      178.125,          50.
    359,      178.125,        48.75
    360,      178.125,         47.5
    361,      178.125,        46.25
    362,      178.125,          45.
    363,      178.125,        43.75
    364,      178.125,         42.5
    365,      178.125,        41.25
    366,      178.125,          40.
    367,      178.125,        38.75
    368,      178.125,         37.5
    369,      178.125,        36.25
    370,      178.125,          35.
    371,      178.125,        33.75
    372,      178.125,         32.5
    373,      178.125,        31.25
    374,      178.125,          30.
    375,      178.125,        28.75
    376,      178.125,         27.5
    377,      178.125,        26.25
    378,      178.125,          25.
    379,      178.125,        23.75
    380,      178.125,         22.5
    381,      178.125,        21.25
    382,      178.125,          20.
    383,      178.125,        18.75
    384,      178.125,         17.5
    385,      178.125,        16.25
    386,      178.125,          15.
    387,      178.125,        13.75
    388,      178.125,         12.5
    389,      178.125,        11.25
    390,      178.125,          10.
    391,      178.125,         8.75
    392,      178.125,          7.5
    393,      178.125,         6.25
    394,      178.125,           5.
    395,      178.125,         3.75
    396,      178.125,          2.5
    397,      178.125,         1.25
    398,   179.340271,           0.
    399,   180.555557,           0.
    400,   181.770828,           0.
    401,   182.986115,           0.
    402,   184.201385,           0.
    403,   185.416672,           0.
    404,   186.631943,           0.
    405,   187.847229,           0.
    406,     189.0625,           0.
    407,   190.277771,           0.
    408,   191.493057,           0.
    409,   192.708328,           0.
    410,   193.923615,           0.
    411,   195.138885,           0.
    412,   196.354172,           0.
    413,   197.569443,           0.
    414,   198.784729,           0.
    415,      171.875,         1.25
    416,      171.875,          2.5
    417,      171.875,         3.75
    418,      171.875,           5.
    419,      171.875,         6.25
    420,      171.875,          7.5
    421,      171.875,         8.75
    422,      171.875,          10.
    423,      171.875,        11.25
    424,      171.875,         12.5
    425,      171.875,        13.75
    426,      171.875,          15.
    427,      171.875,        16.25
    428,      171.875,         17.5
    429,      171.875,        18.75
    430,      171.875,          20.
    431,      171.875,        21.25
    432,      171.875,         22.5
    433,      171.875,        23.75
    434,      171.875,          25.
    435,      171.875,        26.25
    436,      171.875,         27.5
    437,      171.875,        28.75
    438,      171.875,          30.
    439,      171.875,        31.25
    440,      171.875,         32.5
    441,      171.875,        33.75
    442,      171.875,          35.
    443,      171.875,        36.25
    444,      171.875,         37.5
    445,      171.875,        38.75
    446,      171.875,          40.
    447,      171.875,        41.25
    448,      171.875,         42.5
    449,      171.875,        43.75
    450,      171.875,          45.
    451,      171.875,        46.25
    452,      171.875,         47.5
    453,      171.875,        48.75
    454,      171.875,          50.
    455,      171.875,        51.25
    456,      171.875,         52.5
    457,      171.875,        53.75
    458,      171.875,          55.
    459,      171.875,        56.25
    460,      171.875,         57.5
    461,      171.875,        58.75
    462,      171.875,          60.
    463,      171.875,        61.25
    464,      171.875,         62.5
    465,      171.875,        63.75
    466,      171.875,          65.
    467,      171.875,        66.25
    468,      171.875,         67.5
    469,      171.875,        68.75
    470,      171.875,          70.
    471,      171.875,        71.25
    472,      171.875,         72.5
    473,      171.875,        73.75
    474,      171.875,          75.
    475,      171.875,        76.25
    476,      171.875,         77.5
    477,      171.875,        78.75
    478,      171.875,          80.
    479,      171.875,        81.25
    480,      171.875,         82.5
    481,      171.875,        83.75
    482,      171.875,          85.
    483,      171.875,        86.25
    484,      171.875,         87.5
    485,      171.875,        88.75
    486,      171.875,          90.
    487,      171.875,        91.25
    488,      171.875,         92.5
    489,      171.875,        93.75
    490,      171.875,          95.
    491,      171.875,        96.25
    492,      171.875,         97.5
    493,      171.875,        98.75
    494,   170.659729,         100.
    495,   169.444443,         100.
    496,   168.229172,         100.
    497,   167.013885,         100.
    498,   165.798615,         100.
    499,   164.583328,         100.
    500,   163.368057,         100.
    501,   162.152771,         100.
    502,     160.9375,         100.
    503,   159.722229,         100.
    504,   158.506943,         100.
    505,   157.291672,         100.
    506,   156.076385,         100.
    507,   154.861115,         100.
    508,   153.645828,         100.
    509,   152.430557,         100.
    510,   151.215271,         100.
    511,         150.,        98.75
    512,         150.,         97.5
    513,         150.,        96.25
    514,         150.,          95.
    515,         150.,        93.75
    516,         150.,         92.5
    517,         150.,        91.25
    518,         150.,          90.
    519,         150.,        88.75
    520,         150.,         87.5
    521,         150.,        86.25
    522,         150.,          85.
    523,         150.,        83.75
    524,         150.,         82.5
    525,         150.,        81.25
    526,         150.,          80.
    527,         150.,        78.75
    528,         150.,         77.5
    529,         150.,        76.25
    530,         150.,          75.
    531,         150.,        73.75
    532,         150.,         72.5
    533,         150.,        71.25
    534,         150.,          70.
    535,         150.,        68.75
    536,         150.,         67.5
    537,         150.,        66.25
    538,         150.,          65.
    539,         150.,        63.75
    540,         150.,         62.5
    541,         150.,        61.25
    542,         150.,          60.
    543,         150.,        58.75
    544,         150.,         57.5
    545,         150.,        56.25
    546,         150.,          55.
    547,         150.,        53.75
    548,         150.,         52.5
    549,         150.,        51.25
    550,         150.,          50.
    551,         150.,        48.75
    552,         150.,         47.5
    553,         150.,        46.25
    554,         150.,          45.
    555,         150.,        43.75
    556,         150.,         42.5
    557,         150.,        41.25
    558,         150.,          40.
    559,         150.,        38.75
    560,         150.,         37.5
    561,         150.,        36.25
    562,         150.,          35.
    563,         150.,        33.75
    564,         150.,         32.5
    565,         150.,        31.25
    566,         150.,          30.
    567,         150.,        28.75
    568,         150.,         27.5
    569,         150.,        26.25
    570,         150.,          25.
    571,         150.,        23.75
    572,         150.,         22.5
    573,         150.,        21.25
    574,         150.,          20.
    575,         150.,        18.75
    576,         150.,         17.5
    577,         150.,        16.25
    578,         150.,          15.
    579,         150.,        13.75
    580,         150.,         12.5
    581,         150.,        11.25
    582,         150.,          10.
    583,         150.,         8.75
    584,         150.,          7.5
    585,         150.,         6.25
    586,         150.,           5.
    587,         150.,         3.75
    588,         150.,          2.5
    589,         150.,         1.25
    590,   151.215271,           0.
    591,   152.430557,           0.
    592,   153.645828,           0.
    593,   154.861115,           0.
    594,   156.076385,           0.
    595,   157.291672,           0.
    596,   158.506943,           0.
    597,   159.722229,           0.
    598,     160.9375,           0.
    599,   162.152771,           0.
    600,   163.368057,           0.
    601,   164.583328,           0.
    602,   165.798615,           0.
    603,   167.013885,           0.
    604,   168.229172,           0.
    605,   169.444443,           0.
    606,   170.659729,           0.
    607,          50.,        98.75
    608,          50.,         97.5
    609,          50.,        96.25
    610,          50.,          95.
    611,          50.,        93.75
    612,          50.,         92.5
    613,          50.,        91.25
    614,          50.,          90.
    615,          50.,        88.75
    616,          50.,         87.5
    617,          50.,        86.25
    618,          50.,          85.
    619,          50.,        83.75
    620,          50.,         82.5
    621,          50.,        81.25
    622,          50.,          80.
    623,          50.,        78.75
    624,          50.,         77.5
    625,          50.,        76.25
    626,          50.,          75.
    627,          50.,        73.75
    628,          50.,         72.5
    629,          50.,        71.25
    630,          50.,          70.
    631,          50.,        68.75
    632,          50.,         67.5
    633,          50.,        66.25
    634,          50.,          65.
    635,          50.,        63.75
    636,          50.,         62.5
    637,          50.,        61.25
    638,          50.,          60.
    639,          50.,        58.75
    640,          50.,         57.5
    641,          50.,        56.25
    642,          50.,          55.
    643,          50.,        53.75
    644,          50.,         52.5
    645,          50.,        51.25
    646,          50.,          50.
    647,          50.,        48.75
    648,          50.,         47.5
    649,          50.,        46.25
    650,          50.,          45.
    651,          50.,        43.75
    652,          50.,         42.5
    653,          50.,        41.25
    654,          50.,          40.
    655,          50.,        38.75
    656,          50.,         37.5
    657,          50.,        36.25
    658,          50.,          35.
    659,          50.,        33.75
    660,          50.,         32.5
    661,          50.,        31.25
    662,          50.,          30.
    663,          50.,        28.75
    664,          50.,         27.5
    665,          50.,        26.25
    666,          50.,          25.
    667,          50.,        23.75
    668,          50.,         22.5
    669,          50.,        21.25
    670,          50.,          20.
    671,          50.,        18.75
    672,          50.,         17.5
    673,          50.,        16.25
    674,          50.,          15.
    675,          50.,        13.75
    676,          50.,         12.5
    677,          50.,        11.25
    678,          50.,          10.
    679,          50.,         8.75
    680,          50.,          7.5
    681,          50.,         6.25
    682,          50.,           5.
    683,          50.,         3.75
    684,          50.,          2.5
    685,          50.,         1.25
    686,        56.25,           0.
    687,         62.5,           0.
    688,        68.75,           0.
    689,          75.,           0.
    690,        81.25,           0.
    691,         87.5,           0.
    692,        93.75,           0.
    693,         100.,           0.
    694,       106.25,           0.
    695,        112.5,           0.
    696,       118.75,           0.
    697,         125.,           0.
    698,       131.25,           0.
    699,        137.5,           0.
    700,       143.75,           0.
    701,       143.75,         100.
    702,        137.5,         100.
    703,       131.25,         100.
    704,         125.,         100.
    705,       118.75,         100.
    706,        112.5,         100.
    707,       106.25,         100.
    708,         100.,         100.
    709,        93.75,         100.
    710,         87.5,         100.
    711,        81.25,         100.
    712,          75.,         100.
    713,        68.75,         100.
    714,         62.5,         100.
    715,        56.25,         100.
    716,        43.75,         100.
    717,         37.5,         100.
    718,        31.25,         100.
    719,          25.,         100.
    720,        18.75,         100.
    721,         12.5,         100.
    722,         6.25,         100.
    723,           0.,        98.75
    724,           0.,         97.5
    725,           0.,        96.25
    726,           0.,          95.
    727,           0.,        93.75
    728,           0.,         92.5
    729,           0.,        91.25
    730,           0.,          90.
    731,           0.,        88.75
    732,           0.,         87.5
    733,           0.,        86.25
    734,           0.,          85.
    735,           0.,        83.75
    736,           0.,         82.5
    737,           0.,        81.25
    738,           0.,          80.
    739,           0.,        78.75
    740,           0.,         77.5
    741,           0.,        76.25
    742,           0.,          75.
    743,           0.,        73.75
    744,           0.,         72.5
    745,           0.,        71.25
    746,           0.,          70.
    747,           0.,        68.75
    748,           0.,         67.5
    749,           0.,        66.25
    750,           0.,          65.
    751,           0.,        63.75
    752,           0.,         62.5
    753,           0.,        61.25
    754,           0.,          60.
    755,           0.,        58.75
    756,           0.,         57.5
    757,           0.,        56.25
    758,           0.,          55.
    759,           0.,        53.75
    760,           0.,         52.5
    761,           0.,        51.25
    762,           0.,          50.
    763,           0.,        48.75
    764,           0.,         47.5
    765,           0.,        46.25
    766,           0.,          45.
    767,           0.,        43.75
    768,           0.,         42.5
    769,           0.,        41.25
    770,           0.,          40.
    771,           0.,        38.75
    772,           0.,         37.5
    773,           0.,        36.25
    774,           0.,          35.
    775,           0.,        33.75
    776,           0.,         32.5
    777,           0.,        31.25
    778,           0.,          30.
    779,           0.,        28.75
    780,           0.,         27.5
    781,           0.,        26.25
    782,           0.,          25.
    783,           0.,        23.75
    784,           0.,         22.5
    785,           0.,        21.25
    786,           0.,          20.
    787,           0.,        18.75
    788,           0.,         17.5
    789,           0.,        16.25
    790,           0.,          15.
    791,           0.,        13.75
    792,           0.,         12.5
    793,           0.,        11.25
    794,           0.,          10.
    795,           0.,         8.75
    796,           0.,          7.5
    797,           0.,         6.25
    798,           0.,           5.
    799,           0.,         3.75
    800,           0.,          2.5
    801,           0.,         1.25
    802,         6.25,           0.
    803,         12.5,           0.
    804,        18.75,           0.
    805,          25.,           0.
    806,        31.25,           0.
    807,         37.5,           0.
    808,        43.75,           0.
    809,      176.875,         100.
    810,      175.625,         100.
    811,      174.375,         100.
    812,      173.125,         100.
    813,     172.8125,           0.
    814,       173.75,         1.25
    815,       173.75,          2.5
    816,       173.75,         3.75
    817,       173.75,           5.
    818,       173.75,         6.25
    819,       173.75,          7.5
    820,       173.75,         8.75
    821,       173.75,          10.
    822,       173.75,        11.25
    823,       173.75,         12.5
    824,       173.75,        13.75
    825,       173.75,          15.
    826,       173.75,        16.25
    827,       173.75,         17.5
    828,       173.75,        18.75
    829,         175.,          20.
    830,       176.25,        18.75
    831,       176.25,         17.5
    832,       176.25,        16.25
    833,       176.25,          15.
    834,       176.25,        13.75
    835,       176.25,         12.5
    836,       176.25,        11.25
    837,       176.25,          10.
    838,       176.25,         8.75
    839,       176.25,          7.5
    840,       176.25,         6.25
    841,       176.25,           5.
    842,       176.25,         3.75
    843,       176.25,          2.5
    844,       176.25,         1.25
    845,     177.1875,           0.
    846,       306.25,        98.75
    847,       306.25,         97.5
    848,       306.25,        96.25
    849,       306.25,          95.
    850,       306.25,        93.75
    851,       306.25,         92.5
    852,       306.25,        91.25
    853,       306.25,          90.
    854,       306.25,        88.75
    855,       306.25,         87.5
    856,       306.25,        86.25
    857,       306.25,          85.
    858,       306.25,        83.75
    859,       306.25,         82.5
    860,       306.25,        81.25
    861,       306.25,          80.
    862,       306.25,        78.75
    863,       306.25,         77.5
    864,       306.25,        76.25
    865,       306.25,          75.
    866,       306.25,        73.75
    867,       306.25,         72.5
    868,       306.25,        71.25
    869,       306.25,          70.
    870,       306.25,        68.75
    871,       306.25,         67.5
    872,       306.25,        66.25
    873,       306.25,          65.
    874,       306.25,        63.75
    875,       306.25,         62.5
    876,       306.25,        61.25
    877,       306.25,          60.
    878,       306.25,        58.75
    879,       306.25,         57.5
    880,       306.25,        56.25
    881,       306.25,          55.
    882,       306.25,        53.75
    883,       306.25,         52.5
    884,       306.25,        51.25
    885,       306.25,          50.
    886,       306.25,        48.75
    887,       306.25,         47.5
    888,       306.25,        46.25
    889,       306.25,          45.
    890,       306.25,        43.75
    891,       306.25,         42.5
    892,       306.25,        41.25
    893,       306.25,          40.
    894,       306.25,        38.75
    895,       306.25,         37.5
    896,       306.25,        36.25
    897,       306.25,          35.
    898,       306.25,        33.75
    899,       306.25,         32.5
    900,       306.25,        31.25
    901,       306.25,          30.
    902,       306.25,        28.75
    903,       306.25,         27.5
    904,       306.25,        26.25
    905,       306.25,          25.
    906,       306.25,        23.75
    907,       306.25,         22.5
    908,       306.25,        21.25
    909,       306.25,          20.
    910,       306.25,        18.75
    911,       306.25,         17.5
    912,       306.25,        16.25
    913,       306.25,          15.
    914,       306.25,        13.75
    915,       306.25,         12.5
    916,       306.25,        11.25
    917,       306.25,          10.
    918,       306.25,         8.75
    919,       306.25,          7.5
    920,       306.25,         6.25
    921,       306.25,           5.
    922,       306.25,         3.75
    923,       306.25,          2.5
    924,       306.25,         1.25
    925,        312.5,        98.75
    926,        312.5,         97.5
    927,        312.5,        96.25
    928,        312.5,          95.
    929,        312.5,        93.75
    930,        312.5,         92.5
    931,        312.5,        91.25
    932,        312.5,          90.
    933,        312.5,        88.75
    934,        312.5,         87.5
    935,        312.5,        86.25
    936,        312.5,          85.
    937,        312.5,        83.75
    938,        312.5,         82.5
    939,        312.5,        81.25
    940,        312.5,          80.
    941,        312.5,        78.75
    942,        312.5,         77.5
    943,        312.5,        76.25
    944,        312.5,          75.
    945,        312.5,        73.75
    946,        312.5,         72.5
    947,        312.5,        71.25
    948,        312.5,          70.
    949,        312.5,        68.75
    950,        312.5,         67.5
    951,        312.5,        66.25
    952,        312.5,          65.
    953,        312.5,        63.75
    954,        312.5,         62.5
    955,        312.5,        61.25
    956,        312.5,          60.
    957,        312.5,        58.75
    958,        312.5,         57.5
    959,        312.5,        56.25
    960,        312.5,          55.
    961,        312.5,        53.75
    962,        312.5,         52.5
    963,        312.5,        51.25
    964,        312.5,          50.
    965,        312.5,        48.75
    966,        312.5,         47.5
    967,        312.5,        46.25
    968,        312.5,          45.
    969,        312.5,        43.75
    970,        312.5,         42.5
    971,        312.5,        41.25
    972,        312.5,          40.
    973,        312.5,        38.75
    974,        312.5,         37.5
    975,        312.5,        36.25
    976,        312.5,          35.
    977,        312.5,        33.75
    978,        312.5,         32.5
    979,        312.5,        31.25
    980,        312.5,          30.
    981,        312.5,        28.75
    982,        312.5,         27.5
    983,        312.5,        26.25
    984,        312.5,          25.
    985,        312.5,        23.75
    986,        312.5,         22.5
    987,        312.5,        21.25
    988,        312.5,          20.
    989,        312.5,        18.75
    990,        312.5,         17.5
    991,        312.5,        16.25
    992,        312.5,          15.
    993,        312.5,        13.75
    994,        312.5,         12.5
    995,        312.5,        11.25
    996,        312.5,          10.
    997,        312.5,         8.75
    998,        312.5,          7.5
    999,        312.5,         6.25
   1000,        312.5,           5.
   1001,        312.5,         3.75
   1002,        312.5,          2.5
   1003,        312.5,         1.25
   1004,       318.75,        98.75
   1005,       318.75,         97.5
   1006,       318.75,        96.25
   1007,       318.75,          95.
   1008,       318.75,        93.75
   1009,       318.75,         92.5
   1010,       318.75,        91.25
   1011,       318.75,          90.
   1012,       318.75,        88.75
   1013,       318.75,         87.5
   1014,       318.75,        86.25
   1015,       318.75,          85.
   1016,       318.75,        83.75
   1017,       318.75,         82.5
   1018,       318.75,        81.25
   1019,       318.75,          80.
   1020,       318.75,        78.75
   1021,       318.75,         77.5
   1022,       318.75,        76.25
   1023,       318.75,          75.
   1024,       318.75,        73.75
   1025,       318.75,         72.5
   1026,       318.75,        71.25
   1027,       318.75,          70.
   1028,       318.75,        68.75
   1029,       318.75,         67.5
   1030,       318.75,        66.25
   1031,       318.75,          65.
   1032,       318.75,        63.75
   1033,       318.75,         62.5
   1034,       318.75,        61.25
   1035,       318.75,          60.
   1036,       318.75,        58.75
   1037,       318.75,         57.5
   1038,       318.75,        56.25
   1039,       318.75,          55.
   1040,       318.75,        53.75
   1041,       318.75,         52.5
   1042,       318.75,        51.25
   1043,       318.75,          50.
   1044,       318.75,        48.75
   1045,       318.75,         47.5
   1046,       318.75,        46.25
   1047,       318.75,          45.
   1048,       318.75,        43.75
   1049,       318.75,         42.5
   1050,       318.75,        41.25
   1051,       318.75,          40.
   1052,       318.75,        38.75
   1053,       318.75,         37.5
   1054,       318.75,        36.25
   1055,       318.75,          35.
   1056,       318.75,        33.75
   1057,       318.75,         32.5
   1058,       318.75,        31.25
   1059,       318.75,          30.
   1060,       318.75,        28.75
   1061,       318.75,         27.5
   1062,       318.75,        26.25
   1063,       318.75,          25.
   1064,       318.75,        23.75
   1065,       318.75,         22.5
   1066,       318.75,        21.25
   1067,       318.75,          20.
   1068,       318.75,        18.75
   1069,       318.75,         17.5
   1070,       318.75,        16.25
   1071,       318.75,          15.
   1072,       318.75,        13.75
   1073,       318.75,         12.5
   1074,       318.75,        11.25
   1075,       318.75,          10.
   1076,       318.75,         8.75
   1077,       318.75,          7.5
   1078,       318.75,         6.25
   1079,       318.75,           5.
   1080,       318.75,         3.75
   1081,       318.75,          2.5
   1082,       318.75,         1.25
   1083,         325.,        98.75
   1084,         325.,         97.5
   1085,         325.,        96.25
   1086,         325.,          95.
   1087,         325.,        93.75
   1088,         325.,         92.5
   1089,         325.,        91.25
   1090,         325.,          90.
   1091,         325.,        88.75
   1092,         325.,         87.5
   1093,         325.,        86.25
   1094,         325.,          85.
   1095,         325.,        83.75
   1096,         325.,         82.5
   1097,         325.,        81.25
   1098,         325.,          80.
   1099,         325.,        78.75
   1100,         325.,         77.5
   1101,         325.,        76.25
   1102,         325.,          75.
   1103,         325.,        73.75
   1104,         325.,         72.5
   1105,         325.,        71.25
   1106,         325.,          70.
   1107,         325.,        68.75
   1108,         325.,         67.5
   1109,         325.,        66.25
   1110,         325.,          65.
   1111,         325.,        63.75
   1112,         325.,         62.5
   1113,         325.,        61.25
   1114,         325.,          60.
   1115,         325.,        58.75
   1116,         325.,         57.5
   1117,         325.,        56.25
   1118,         325.,          55.
   1119,         325.,        53.75
   1120,         325.,         52.5
   1121,         325.,        51.25
   1122,         325.,          50.
   1123,         325.,        48.75
   1124,         325.,         47.5
   1125,         325.,        46.25
   1126,         325.,          45.
   1127,         325.,        43.75
   1128,         325.,         42.5
   1129,         325.,        41.25
   1130,         325.,          40.
   1131,         325.,        38.75
   1132,         325.,         37.5
   1133,         325.,        36.25
   1134,         325.,          35.
   1135,         325.,        33.75
   1136,         325.,         32.5
   1137,         325.,        31.25
   1138,         325.,          30.
   1139,         325.,        28.75
   1140,         325.,         27.5
   1141,         325.,        26.25
   1142,         325.,          25.
   1143,         325.,        23.75
   1144,         325.,         22.5
   1145,         325.,        21.25
   1146,         325.,          20.
   1147,         325.,        18.75
   1148,         325.,         17.5
   1149,         325.,        16.25
   1150,         325.,          15.
   1151,         325.,        13.75
   1152,         325.,         12.5
   1153,         325.,        11.25
   1154,         325.,          10.
   1155,         325.,         8.75
   1156,         325.,          7.5
   1157,         325.,         6.25
   1158,         325.,           5.
   1159,         325.,         3.75
   1160,         325.,          2.5
   1161,         325.,         1.25
   1162,       331.25,        98.75
   1163,       331.25,         97.5
   1164,       331.25,        96.25
   1165,       331.25,          95.
   1166,       331.25,        93.75
   1167,       331.25,         92.5
   1168,       331.25,        91.25
   1169,       331.25,          90.
   1170,       331.25,        88.75
   1171,       331.25,         87.5
   1172,       331.25,        86.25
   1173,       331.25,          85.
   1174,       331.25,        83.75
   1175,       331.25,         82.5
   1176,       331.25,        81.25
   1177,       331.25,          80.
   1178,       331.25,        78.75
   1179,       331.25,         77.5
   1180,       331.25,        76.25
   1181,       331.25,          75.
   1182,       331.25,        73.75
   1183,       331.25,         72.5
   1184,       331.25,        71.25
   1185,       331.25,          70.
   1186,       331.25,        68.75
   1187,       331.25,         67.5
   1188,       331.25,        66.25
   1189,       331.25,          65.
   1190,       331.25,        63.75
   1191,       331.25,         62.5
   1192,       331.25,        61.25
   1193,       331.25,          60.
   1194,       331.25,        58.75
   1195,       331.25,         57.5
   1196,       331.25,        56.25
   1197,       331.25,          55.
   1198,       331.25,        53.75
   1199,       331.25,         52.5
   1200,       331.25,        51.25
   1201,       331.25,          50.
   1202,       331.25,        48.75
   1203,       331.25,         47.5
   1204,       331.25,        46.25
   1205,       331.25,          45.
   1206,       331.25,        43.75
   1207,       331.25,         42.5
   1208,       331.25,        41.25
   1209,       331.25,          40.
   1210,       331.25,        38.75
   1211,       331.25,         37.5
   1212,       331.25,        36.25
   1213,       331.25,          35.
   1214,       331.25,        33.75
   1215,       331.25,         32.5
   1216,       331.25,        31.25
   1217,       331.25,          30.
   1218,       331.25,        28.75
   1219,       331.25,         27.5
   1220,       331.25,        26.25
   1221,       331.25,          25.
   1222,       331.25,        23.75
   1223,       331.25,         22.5
   1224,       331.25,        21.25
   1225,       331.25,          20.
   1226,       331.25,        18.75
   1227,       331.25,         17.5
   1228,       331.25,        16.25
   1229,       331.25,          15.
   1230,       331.25,        13.75
   1231,       331.25,         12.5
   1232,       331.25,        11.25
   1233,       331.25,          10.
   1234,       331.25,         8.75
   1235,       331.25,          7.5
   1236,       331.25,         6.25
   1237,       331.25,           5.
   1238,       331.25,         3.75
   1239,       331.25,          2.5
   1240,       331.25,         1.25
   1241,        337.5,        98.75
   1242,        337.5,         97.5
   1243,        337.5,        96.25
   1244,        337.5,          95.
   1245,        337.5,        93.75
   1246,        337.5,         92.5
   1247,        337.5,        91.25
   1248,        337.5,          90.
   1249,        337.5,        88.75
   1250,        337.5,         87.5
   1251,        337.5,        86.25
   1252,        337.5,          85.
   1253,        337.5,        83.75
   1254,        337.5,         82.5
   1255,        337.5,        81.25
   1256,        337.5,          80.
   1257,        337.5,        78.75
   1258,        337.5,         77.5
   1259,        337.5,        76.25
   1260,        337.5,          75.
   1261,        337.5,        73.75
   1262,        337.5,         72.5
   1263,        337.5,        71.25
   1264,        337.5,          70.
   1265,        337.5,        68.75
   1266,        337.5,         67.5
   1267,        337.5,        66.25
   1268,        337.5,          65.
   1269,        337.5,        63.75
   1270,        337.5,         62.5
   1271,        337.5,        61.25
   1272,        337.5,          60.
   1273,        337.5,        58.75
   1274,        337.5,         57.5
   1275,        337.5,        56.25
   1276,        337.5,          55.
   1277,        337.5,        53.75
   1278,        337.5,         52.5
   1279,        337.5,        51.25
   1280,        337.5,          50.
   1281,        337.5,        48.75
   1282,        337.5,         47.5
   1283,        337.5,        46.25
   1284,        337.5,          45.
   1285,        337.5,        43.75
   1286,        337.5,         42.5
   1287,        337.5,        41.25
   1288,        337.5,          40.
   1289,        337.5,        38.75
   1290,        337.5,         37.5
   1291,        337.5,        36.25
   1292,        337.5,          35.
   1293,        337.5,        33.75
   1294,        337.5,         32.5
   1295,        337.5,        31.25
   1296,        337.5,          30.
   1297,        337.5,        28.75
   1298,        337.5,         27.5
   1299,        337.5,        26.25
   1300,        337.5,          25.
   1301,        337.5,        23.75
   1302,        337.5,         22.5
   1303,        337.5,        21.25
   1304,        337.5,          20.
   1305,        337.5,        18.75
   1306,        337.5,         17.5
   1307,        337.5,        16.25
   1308,        337.5,          15.
   1309,        337.5,        13.75
   1310,        337.5,         12.5
   1311,        337.5,        11.25
   1312,        337.5,          10.
   1313,        337.5,         8.75
   1314,        337.5,          7.5
   1315,        337.5,         6.25
   1316,        337.5,           5.
   1317,        337.5,         3.75
   1318,        337.5,          2.5
   1319,        337.5,         1.25
   1320,       343.75,        98.75
   1321,       343.75,         97.5
   1322,       343.75,        96.25
   1323,       343.75,          95.
   1324,       343.75,        93.75
   1325,       343.75,         92.5
   1326,       343.75,        91.25
   1327,       343.75,          90.
   1328,       343.75,        88.75
   1329,       343.75,         87.5
   1330,       343.75,        86.25
   1331,       343.75,          85.
   1332,       343.75,        83.75
   1333,       343.75,         82.5
   1334,       343.75,        81.25
   1335,       343.75,          80.
   1336,       343.75,        78.75
   1337,       343.75,         77.5
   1338,       343.75,        76.25
   1339,       343.75,          75.
   1340,       343.75,        73.75
   1341,       343.75,         72.5
   1342,       343.75,        71.25
   1343,       343.75,          70.
   1344,       343.75,        68.75
   1345,       343.75,         67.5
   1346,       343.75,        66.25
   1347,       343.75,          65.
   1348,       343.75,        63.75
   1349,       343.75,         62.5
   1350,       343.75,        61.25
   1351,       343.75,          60.
   1352,       343.75,        58.75
   1353,       343.75,         57.5
   1354,       343.75,        56.25
   1355,       343.75,          55.
   1356,       343.75,        53.75
   1357,       343.75,         52.5
   1358,       343.75,        51.25
   1359,       343.75,          50.
   1360,       343.75,        48.75
   1361,       343.75,         47.5
   1362,       343.75,        46.25
   1363,       343.75,          45.
   1364,       343.75,        43.75
   1365,       343.75,         42.5
   1366,       343.75,        41.25
   1367,       343.75,          40.
   1368,       343.75,        38.75
   1369,       343.75,         37.5
   1370,       343.75,        36.25
   1371,       343.75,          35.
   1372,       343.75,        33.75
   1373,       343.75,         32.5
   1374,       343.75,        31.25
   1375,       343.75,          30.
   1376,       343.75,        28.75
   1377,       343.75,         27.5
   1378,       343.75,        26.25
   1379,       343.75,          25.
   1380,       343.75,        23.75
   1381,       343.75,         22.5
   1382,       343.75,        21.25
   1383,       343.75,          20.
   1384,       343.75,        18.75
   1385,       343.75,         17.5
   1386,       343.75,        16.25
   1387,       343.75,          15.
   1388,       343.75,        13.75
   1389,       343.75,         12.5
   1390,       343.75,        11.25
   1391,       343.75,          10.
   1392,       343.75,         8.75
   1393,       343.75,          7.5
   1394,       343.75,         6.25
   1395,       343.75,           5.
   1396,       343.75,         3.75
   1397,       343.75,          2.5
   1398,       343.75,         1.25
   1399,       206.25,        98.75
   1400,       206.25,         97.5
   1401,       206.25,        96.25
   1402,       206.25,          95.
   1403,       206.25,        93.75
   1404,       206.25,         92.5
   1405,       206.25,        91.25
   1406,       206.25,          90.
   1407,       206.25,        88.75
   1408,       206.25,         87.5
   1409,       206.25,        86.25
   1410,       206.25,          85.
   1411,       206.25,        83.75
   1412,       206.25,         82.5
   1413,       206.25,        81.25
   1414,       206.25,          80.
   1415,       206.25,        78.75
   1416,       206.25,         77.5
   1417,       206.25,        76.25
   1418,       206.25,          75.
   1419,       206.25,        73.75
   1420,       206.25,         72.5
   1421,       206.25,        71.25
   1422,       206.25,          70.
   1423,       206.25,        68.75
   1424,       206.25,         67.5
   1425,       206.25,        66.25
   1426,       206.25,          65.
   1427,       206.25,        63.75
   1428,       206.25,         62.5
   1429,       206.25,        61.25
   1430,       206.25,          60.
   1431,       206.25,        58.75
   1432,       206.25,         57.5
   1433,       206.25,        56.25
   1434,       206.25,          55.
   1435,       206.25,        53.75
   1436,       206.25,         52.5
   1437,       206.25,        51.25
   1438,       206.25,          50.
   1439,       206.25,        48.75
   1440,       206.25,         47.5
   1441,       206.25,        46.25
   1442,       206.25,          45.
   1443,       206.25,        43.75
   1444,       206.25,         42.5
   1445,       206.25,        41.25
   1446,       206.25,          40.
   1447,       206.25,        38.75
   1448,       206.25,         37.5
   1449,       206.25,        36.25
   1450,       206.25,          35.
   1451,       206.25,        33.75
   1452,       206.25,         32.5
   1453,       206.25,        31.25
   1454,       206.25,          30.
   1455,       206.25,        28.75
   1456,       206.25,         27.5
   1457,       206.25,        26.25
   1458,       206.25,          25.
   1459,       206.25,        23.75
   1460,       206.25,         22.5
   1461,       206.25,        21.25
   1462,       206.25,          20.
   1463,       206.25,        18.75
   1464,       206.25,         17.5
   1465,       206.25,        16.25
   1466,       206.25,          15.
   1467,       206.25,        13.75
   1468,       206.25,         12.5
   1469,       206.25,        11.25
   1470,       206.25,          10.
   1471,       206.25,         8.75
   1472,       206.25,          7.5
   1473,       206.25,         6.25
   1474,       206.25,           5.
   1475,       206.25,         3.75
   1476,       206.25,          2.5
   1477,       206.25,         1.25
   1478,        212.5,        98.75
   1479,        212.5,         97.5
   1480,        212.5,        96.25
   1481,        212.5,          95.
   1482,        212.5,        93.75
   1483,        212.5,         92.5
   1484,        212.5,        91.25
   1485,        212.5,          90.
   1486,        212.5,        88.75
   1487,        212.5,         87.5
   1488,        212.5,        86.25
   1489,        212.5,          85.
   1490,        212.5,        83.75
   1491,        212.5,         82.5
   1492,        212.5,        81.25
   1493,        212.5,          80.
   1494,        212.5,        78.75
   1495,        212.5,         77.5
   1496,        212.5,        76.25
   1497,        212.5,          75.
   1498,        212.5,        73.75
   1499,        212.5,         72.5
   1500,        212.5,        71.25
   1501,        212.5,          70.
   1502,        212.5,        68.75
   1503,        212.5,         67.5
   1504,        212.5,        66.25
   1505,        212.5,          65.
   1506,        212.5,        63.75
   1507,        212.5,         62.5
   1508,        212.5,        61.25
   1509,        212.5,          60.
   1510,        212.5,        58.75
   1511,        212.5,         57.5
   1512,        212.5,        56.25
   1513,        212.5,          55.
   1514,        212.5,        53.75
   1515,        212.5,         52.5
   1516,        212.5,        51.25
   1517,        212.5,          50.
   1518,        212.5,        48.75
   1519,        212.5,         47.5
   1520,        212.5,        46.25
   1521,        212.5,          45.
   1522,        212.5,        43.75
   1523,        212.5,         42.5
   1524,        212.5,        41.25
   1525,        212.5,          40.
   1526,        212.5,        38.75
   1527,        212.5,         37.5
   1528,        212.5,        36.25
   1529,        212.5,          35.
   1530,        212.5,        33.75
   1531,        212.5,         32.5
   1532,        212.5,        31.25
   1533,        212.5,          30.
   1534,        212.5,        28.75
   1535,        212.5,         27.5
   1536,        212.5,        26.25
   1537,        212.5,          25.
   1538,        212.5,        23.75
   1539,        212.5,         22.5
   1540,        212.5,        21.25
   1541,        212.5,          20.
   1542,        212.5,        18.75
   1543,        212.5,         17.5
   1544,        212.5,        16.25
   1545,        212.5,          15.
   1546,        212.5,        13.75
   1547,        212.5,         12.5
   1548,        212.5,        11.25
   1549,        212.5,          10.
   1550,        212.5,         8.75
   1551,        212.5,          7.5
   1552,        212.5,         6.25
   1553,        212.5,           5.
   1554,        212.5,         3.75
   1555,        212.5,          2.5
   1556,        212.5,         1.25
   1557,       218.75,        98.75
   1558,       218.75,         97.5
   1559,       218.75,        96.25
   1560,       218.75,          95.
   1561,       218.75,        93.75
   1562,       218.75,         92.5
   1563,       218.75,        91.25
   1564,       218.75,          90.
   1565,       218.75,        88.75
   1566,       218.75,         87.5
   1567,       218.75,        86.25
   1568,       218.75,          85.
   1569,       218.75,        83.75
   1570,       218.75,         82.5
   1571,       218.75,        81.25
   1572,       218.75,          80.
   1573,       218.75,        78.75
   1574,       218.75,         77.5
   1575,       218.75,        76.25
   1576,       218.75,          75.
   1577,       218.75,        73.75
   1578,       218.75,         72.5
   1579,       218.75,        71.25
   1580,       218.75,          70.
   1581,       218.75,        68.75
   1582,       218.75,         67.5
   1583,       218.75,        66.25
   1584,       218.75,          65.
   1585,       218.75,        63.75
   1586,       218.75,         62.5
   1587,       218.75,        61.25
   1588,       218.75,          60.
   1589,       218.75,        58.75
   1590,       218.75,         57.5
   1591,       218.75,        56.25
   1592,       218.75,          55.
   1593,       218.75,        53.75
   1594,       218.75,         52.5
   1595,       218.75,        51.25
   1596,       218.75,          50.
   1597,       218.75,        48.75
   1598,       218.75,         47.5
   1599,       218.75,        46.25
   1600,       218.75,          45.
   1601,       218.75,        43.75
   1602,       218.75,         42.5
   1603,       218.75,        41.25
   1604,       218.75,          40.
   1605,       218.75,        38.75
   1606,       218.75,         37.5
   1607,       218.75,        36.25
   1608,       218.75,          35.
   1609,       218.75,        33.75
   1610,       218.75,         32.5
   1611,       218.75,        31.25
   1612,       218.75,          30.
   1613,       218.75,        28.75
   1614,       218.75,         27.5
   1615,       218.75,        26.25
   1616,       218.75,          25.
   1617,       218.75,        23.75
   1618,       218.75,         22.5
   1619,       218.75,        21.25
   1620,       218.75,          20.
   1621,       218.75,        18.75
   1622,       218.75,         17.5
   1623,       218.75,        16.25
   1624,       218.75,          15.
   1625,       218.75,        13.75
   1626,       218.75,         12.5
   1627,       218.75,        11.25
   1628,       218.75,          10.
   1629,       218.75,         8.75
   1630,       218.75,          7.5
   1631,       218.75,         6.25
   1632,       218.75,           5.
   1633,       218.75,         3.75
   1634,       218.75,          2.5
   1635,       218.75,         1.25
   1636,         225.,        98.75
   1637,         225.,         97.5
   1638,         225.,        96.25
   1639,         225.,          95.
   1640,         225.,        93.75
   1641,         225.,         92.5
   1642,         225.,        91.25
   1643,         225.,          90.
   1644,         225.,        88.75
   1645,         225.,         87.5
   1646,         225.,        86.25
   1647,         225.,          85.
   1648,         225.,        83.75
   1649,         225.,         82.5
   1650,         225.,        81.25
   1651,         225.,          80.
   1652,         225.,        78.75
   1653,         225.,         77.5
   1654,         225.,        76.25
   1655,         225.,          75.
   1656,         225.,        73.75
   1657,         225.,         72.5
   1658,         225.,        71.25
   1659,         225.,          70.
   1660,         225.,        68.75
   1661,         225.,         67.5
   1662,         225.,        66.25
   1663,         225.,          65.
   1664,         225.,        63.75
   1665,         225.,         62.5
   1666,         225.,        61.25
   1667,         225.,          60.
   1668,         225.,        58.75
   1669,         225.,         57.5
   1670,         225.,        56.25
   1671,         225.,          55.
   1672,         225.,        53.75
   1673,         225.,         52.5
   1674,         225.,        51.25
   1675,         225.,          50.
   1676,         225.,        48.75
   1677,         225.,         47.5
   1678,         225.,        46.25
   1679,         225.,          45.
   1680,         225.,        43.75
   1681,         225.,         42.5
   1682,         225.,        41.25
   1683,         225.,          40.
   1684,         225.,        38.75
   1685,         225.,         37.5
   1686,         225.,        36.25
   1687,         225.,          35.
   1688,         225.,        33.75
   1689,         225.,         32.5
   1690,         225.,        31.25
   1691,         225.,          30.
   1692,         225.,        28.75
   1693,         225.,         27.5
   1694,         225.,        26.25
   1695,         225.,          25.
   1696,         225.,        23.75
   1697,         225.,         22.5
   1698,         225.,        21.25
   1699,         225.,          20.
   1700,         225.,        18.75
   1701,         225.,         17.5
   1702,         225.,        16.25
   1703,         225.,          15.
   1704,         225.,        13.75
   1705,         225.,         12.5
   1706,         225.,        11.25
   1707,         225.,          10.
   1708,         225.,         8.75
   1709,         225.,          7.5
   1710,         225.,         6.25
   1711,         225.,           5.
   1712,         225.,         3.75
   1713,         225.,          2.5
   1714,         225.,         1.25
   1715,       231.25,        98.75
   1716,       231.25,         97.5
   1717,       231.25,        96.25
   1718,       231.25,          95.
   1719,       231.25,        93.75
   1720,       231.25,         92.5
   1721,       231.25,        91.25
   1722,       231.25,          90.
   1723,       231.25,        88.75
   1724,       231.25,         87.5
   1725,       231.25,        86.25
   1726,       231.25,          85.
   1727,       231.25,        83.75
   1728,       231.25,         82.5
   1729,       231.25,        81.25
   1730,       231.25,          80.
   1731,       231.25,        78.75
   1732,       231.25,         77.5
   1733,       231.25,        76.25
   1734,       231.25,          75.
   1735,       231.25,        73.75
   1736,       231.25,         72.5
   1737,       231.25,        71.25
   1738,       231.25,          70.
   1739,       231.25,        68.75
   1740,       231.25,         67.5
   1741,       231.25,        66.25
   1742,       231.25,          65.
   1743,       231.25,        63.75
   1744,       231.25,         62.5
   1745,       231.25,        61.25
   1746,       231.25,          60.
   1747,       231.25,        58.75
   1748,       231.25,         57.5
   1749,       231.25,        56.25
   1750,       231.25,          55.
   1751,       231.25,        53.75
   1752,       231.25,         52.5
   1753,       231.25,        51.25
   1754,       231.25,          50.
   1755,       231.25,        48.75
   1756,       231.25,         47.5
   1757,       231.25,        46.25
   1758,       231.25,          45.
   1759,       231.25,        43.75
   1760,       231.25,         42.5
   1761,       231.25,        41.25
   1762,       231.25,          40.
   1763,       231.25,        38.75
   1764,       231.25,         37.5
   1765,       231.25,        36.25
   1766,       231.25,          35.
   1767,       231.25,        33.75
   1768,       231.25,         32.5
   1769,       231.25,        31.25
   1770,       231.25,          30.
   1771,       231.25,        28.75
   1772,       231.25,         27.5
   1773,       231.25,        26.25
   1774,       231.25,          25.
   1775,       231.25,        23.75
   1776,       231.25,         22.5
   1777,       231.25,        21.25
   1778,       231.25,          20.
   1779,       231.25,        18.75
   1780,       231.25,         17.5
   1781,       231.25,        16.25
   1782,       231.25,          15.
   1783,       231.25,        13.75
   1784,       231.25,         12.5
   1785,       231.25,        11.25
   1786,       231.25,          10.
   1787,       231.25,         8.75
   1788,       231.25,          7.5
   1789,       231.25,         6.25
   1790,       231.25,           5.
   1791,       231.25,         3.75
   1792,       231.25,          2.5
   1793,       231.25,         1.25
   1794,        237.5,        98.75
   1795,        237.5,         97.5
   1796,        237.5,        96.25
   1797,        237.5,          95.
   1798,        237.5,        93.75
   1799,        237.5,         92.5
   1800,        237.5,        91.25
   1801,        237.5,          90.
   1802,        237.5,        88.75
   1803,        237.5,         87.5
   1804,        237.5,        86.25
   1805,        237.5,          85.
   1806,        237.5,        83.75
   1807,        237.5,         82.5
   1808,        237.5,        81.25
   1809,        237.5,          80.
   1810,        237.5,        78.75
   1811,        237.5,         77.5
   1812,        237.5,        76.25
   1813,        237.5,          75.
   1814,        237.5,        73.75
   1815,        237.5,         72.5
   1816,        237.5,        71.25
   1817,        237.5,          70.
   1818,        237.5,        68.75
   1819,        237.5,         67.5
   1820,        237.5,        66.25
   1821,        237.5,          65.
   1822,        237.5,        63.75
   1823,        237.5,         62.5
   1824,        237.5,        61.25
   1825,        237.5,          60.
   1826,        237.5,        58.75
   1827,        237.5,         57.5
   1828,        237.5,        56.25
   1829,        237.5,          55.
   1830,        237.5,        53.75
   1831,        237.5,         52.5
   1832,        237.5,        51.25
   1833,        237.5,          50.
   1834,        237.5,        48.75
   1835,        237.5,         47.5
   1836,        237.5,        46.25
   1837,        237.5,          45.
   1838,        237.5,        43.75
   1839,        237.5,         42.5
   1840,        237.5,        41.25
   1841,        237.5,          40.
   1842,        237.5,        38.75
   1843,        237.5,         37.5
   1844,        237.5,        36.25
   1845,        237.5,          35.
   1846,        237.5,        33.75
   1847,        237.5,         32.5
   1848,        237.5,        31.25
   1849,        237.5,          30.
   1850,        237.5,        28.75
   1851,        237.5,         27.5
   1852,        237.5,        26.25
   1853,        237.5,          25.
   1854,        237.5,        23.75
   1855,        237.5,         22.5
   1856,        237.5,        21.25
   1857,        237.5,          20.
   1858,        237.5,        18.75
   1859,        237.5,         17.5
   1860,        237.5,        16.25
   1861,        237.5,          15.
   1862,        237.5,        13.75
   1863,        237.5,         12.5
   1864,        237.5,        11.25
   1865,        237.5,          10.
   1866,        237.5,         8.75
   1867,        237.5,          7.5
   1868,        237.5,         6.25
   1869,        237.5,           5.
   1870,        237.5,         3.75
   1871,        237.5,          2.5
   1872,        237.5,         1.25
   1873,       243.75,        98.75
   1874,       243.75,         97.5
   1875,       243.75,        96.25
   1876,       243.75,          95.
   1877,       243.75,        93.75
   1878,       243.75,         92.5
   1879,       243.75,        91.25
   1880,       243.75,          90.
   1881,       243.75,        88.75
   1882,       243.75,         87.5
   1883,       243.75,        86.25
   1884,       243.75,          85.
   1885,       243.75,        83.75
   1886,       243.75,         82.5
   1887,       243.75,        81.25
   1888,       243.75,          80.
   1889,       243.75,        78.75
   1890,       243.75,         77.5
   1891,       243.75,        76.25
   1892,       243.75,          75.
   1893,       243.75,        73.75
   1894,       243.75,         72.5
   1895,       243.75,        71.25
   1896,       243.75,          70.
   1897,       243.75,        68.75
   1898,       243.75,         67.5
   1899,       243.75,        66.25
   1900,       243.75,          65.
   1901,       243.75,        63.75
   1902,       243.75,         62.5
   1903,       243.75,        61.25
   1904,       243.75,          60.
   1905,       243.75,        58.75
   1906,       243.75,         57.5
   1907,       243.75,        56.25
   1908,       243.75,          55.
   1909,       243.75,        53.75
   1910,       243.75,         52.5
   1911,       243.75,        51.25
   1912,       243.75,          50.
   1913,       243.75,        48.75
   1914,       243.75,         47.5
   1915,       243.75,        46.25
   1916,       243.75,          45.
   1917,       243.75,        43.75
   1918,       243.75,         42.5
   1919,       243.75,        41.25
   1920,       243.75,          40.
   1921,       243.75,        38.75
   1922,       243.75,         37.5
   1923,       243.75,        36.25
   1924,       243.75,          35.
   1925,       243.75,        33.75
   1926,       243.75,         32.5
   1927,       243.75,        31.25
   1928,       243.75,          30.
   1929,       243.75,        28.75
   1930,       243.75,         27.5
   1931,       243.75,        26.25
   1932,       243.75,          25.
   1933,       243.75,        23.75
   1934,       243.75,         22.5
   1935,       243.75,        21.25
   1936,       243.75,          20.
   1937,       243.75,        18.75
   1938,       243.75,         17.5
   1939,       243.75,        16.25
   1940,       243.75,          15.
   1941,       243.75,        13.75
   1942,       243.75,         12.5
   1943,       243.75,        11.25
   1944,       243.75,          10.
   1945,       243.75,         8.75
   1946,       243.75,          7.5
   1947,       243.75,         6.25
   1948,       243.75,           5.
   1949,       243.75,         3.75
   1950,       243.75,          2.5
   1951,       243.75,         1.25
   1952,         250.,        98.75
   1953,         250.,         97.5
   1954,         250.,        96.25
   1955,         250.,          95.
   1956,         250.,        93.75
   1957,         250.,         92.5
   1958,         250.,        91.25
   1959,         250.,          90.
   1960,         250.,        88.75
   1961,         250.,         87.5
   1962,         250.,        86.25
   1963,         250.,          85.
   1964,         250.,        83.75
   1965,         250.,         82.5
   1966,         250.,        81.25
   1967,         250.,          80.
   1968,         250.,        78.75
   1969,         250.,         77.5
   1970,         250.,        76.25
   1971,         250.,          75.
   1972,         250.,        73.75
   1973,         250.,         72.5
   1974,         250.,        71.25
   1975,         250.,          70.
   1976,         250.,        68.75
   1977,         250.,         67.5
   1978,         250.,        66.25
   1979,         250.,          65.
   1980,         250.,        63.75
   1981,         250.,         62.5
   1982,         250.,        61.25
   1983,         250.,          60.
   1984,         250.,        58.75
   1985,         250.,         57.5
   1986,         250.,        56.25
   1987,         250.,          55.
   1988,         250.,        53.75
   1989,         250.,         52.5
   1990,         250.,        51.25
   1991,         250.,          50.
   1992,         250.,        48.75
   1993,         250.,         47.5
   1994,         250.,        46.25
   1995,         250.,          45.
   1996,         250.,        43.75
   1997,         250.,         42.5
   1998,         250.,        41.25
   1999,         250.,          40.
   2000,         250.,        38.75
   2001,         250.,         37.5
   2002,         250.,        36.25
   2003,         250.,          35.
   2004,         250.,        33.75
   2005,         250.,         32.5
   2006,         250.,        31.25
   2007,         250.,          30.
   2008,         250.,        28.75
   2009,         250.,         27.5
   2010,         250.,        26.25
   2011,         250.,          25.
   2012,         250.,        23.75
   2013,         250.,         22.5
   2014,         250.,        21.25
   2015,         250.,          20.
   2016,         250.,        18.75
   2017,         250.,         17.5
   2018,         250.,        16.25
   2019,         250.,          15.
   2020,         250.,        13.75
   2021,         250.,         12.5
   2022,         250.,        11.25
   2023,         250.,          10.
   2024,         250.,         8.75
   2025,         250.,          7.5
   2026,         250.,         6.25
   2027,         250.,           5.
   2028,         250.,         3.75
   2029,         250.,          2.5
   2030,         250.,         1.25
   2031,       256.25,        98.75
   2032,       256.25,         97.5
   2033,       256.25,        96.25
   2034,       256.25,          95.
   2035,       256.25,        93.75
   2036,       256.25,         92.5
   2037,       256.25,        91.25
   2038,       256.25,          90.
   2039,       256.25,        88.75
   2040,       256.25,         87.5
   2041,       256.25,        86.25
   2042,       256.25,          85.
   2043,       256.25,        83.75
   2044,       256.25,         82.5
   2045,       256.25,        81.25
   2046,       256.25,          80.
   2047,       256.25,        78.75
   2048,       256.25,         77.5
   2049,       256.25,        76.25
   2050,       256.25,          75.
   2051,       256.25,        73.75
   2052,       256.25,         72.5
   2053,       256.25,        71.25
   2054,       256.25,          70.
   2055,       256.25,        68.75
   2056,       256.25,         67.5
   2057,       256.25,        66.25
   2058,       256.25,          65.
   2059,       256.25,        63.75
   2060,       256.25,         62.5
   2061,       256.25,        61.25
   2062,       256.25,          60.
   2063,       256.25,        58.75
   2064,       256.25,         57.5
   2065,       256.25,        56.25
   2066,       256.25,          55.
   2067,       256.25,        53.75
   2068,       256.25,         52.5
   2069,       256.25,        51.25
   2070,       256.25,          50.
   2071,       256.25,        48.75
   2072,       256.25,         47.5
   2073,       256.25,        46.25
   2074,       256.25,          45.
   2075,       256.25,        43.75
   2076,       256.25,         42.5
   2077,       256.25,        41.25
   2078,       256.25,          40.
   2079,       256.25,        38.75
   2080,       256.25,         37.5
   2081,       256.25,        36.25
   2082,       256.25,          35.
   2083,       256.25,        33.75
   2084,       256.25,         32.5
   2085,       256.25,        31.25
   2086,       256.25,          30.
   2087,       256.25,        28.75
   2088,       256.25,         27.5
   2089,       256.25,        26.25
   2090,       256.25,          25.
   2091,       256.25,        23.75
   2092,       256.25,         22.5
   2093,       256.25,        21.25
   2094,       256.25,          20.
   2095,       256.25,        18.75
   2096,       256.25,         17.5
   2097,       256.25,        16.25
   2098,       256.25,          15.
   2099,       256.25,        13.75
   2100,       256.25,         12.5
   2101,       256.25,        11.25
   2102,       256.25,          10.
   2103,       256.25,         8.75
   2104,       256.25,          7.5
   2105,       256.25,         6.25
   2106,       256.25,           5.
   2107,       256.25,         3.75
   2108,       256.25,          2.5
   2109,       256.25,         1.25
   2110,        262.5,        98.75
   2111,        262.5,         97.5
   2112,        262.5,        96.25
   2113,        262.5,          95.
   2114,        262.5,        93.75
   2115,        262.5,         92.5
   2116,        262.5,        91.25
   2117,        262.5,          90.
   2118,        262.5,        88.75
   2119,        262.5,         87.5
   2120,        262.5,        86.25
   2121,        262.5,          85.
   2122,        262.5,        83.75
   2123,        262.5,         82.5
   2124,        262.5,        81.25
   2125,        262.5,          80.
   2126,        262.5,        78.75
   2127,        262.5,         77.5
   2128,        262.5,        76.25
   2129,        262.5,          75.
   2130,        262.5,        73.75
   2131,        262.5,         72.5
   2132,        262.5,        71.25
   2133,        262.5,          70.
   2134,        262.5,        68.75
   2135,        262.5,         67.5
   2136,        262.5,        66.25
   2137,        262.5,          65.
   2138,        262.5,        63.75
   2139,        262.5,         62.5
   2140,        262.5,        61.25
   2141,        262.5,          60.
   2142,        262.5,        58.75
   2143,        262.5,         57.5
   2144,        262.5,        56.25
   2145,        262.5,          55.
   2146,        262.5,        53.75
   2147,        262.5,         52.5
   2148,        262.5,        51.25
   2149,        262.5,          50.
   2150,        262.5,        48.75
   2151,        262.5,         47.5
   2152,        262.5,        46.25
   2153,        262.5,          45.
   2154,        262.5,        43.75
   2155,        262.5,         42.5
   2156,        262.5,        41.25
   2157,        262.5,          40.
   2158,        262.5,        38.75
   2159,        262.5,         37.5
   2160,        262.5,        36.25
   2161,        262.5,          35.
   2162,        262.5,        33.75
   2163,        262.5,         32.5
   2164,        262.5,        31.25
   2165,        262.5,          30.
   2166,        262.5,        28.75
   2167,        262.5,         27.5
   2168,        262.5,        26.25
   2169,        262.5,          25.
   2170,        262.5,        23.75
   2171,        262.5,         22.5
   2172,        262.5,        21.25
   2173,        262.5,          20.
   2174,        262.5,        18.75
   2175,        262.5,         17.5
   2176,        262.5,        16.25
   2177,        262.5,          15.
   2178,        262.5,        13.75
   2179,        262.5,         12.5
   2180,        262.5,        11.25
   2181,        262.5,          10.
   2182,        262.5,         8.75
   2183,        262.5,          7.5
   2184,        262.5,         6.25
   2185,        262.5,           5.
   2186,        262.5,         3.75
   2187,        262.5,          2.5
   2188,        262.5,         1.25
   2189,       268.75,        98.75
   2190,       268.75,         97.5
   2191,       268.75,        96.25
   2192,       268.75,          95.
   2193,       268.75,        93.75
   2194,       268.75,         92.5
   2195,       268.75,        91.25
   2196,       268.75,          90.
   2197,       268.75,        88.75
   2198,       268.75,         87.5
   2199,       268.75,        86.25
   2200,       268.75,          85.
   2201,       268.75,        83.75
   2202,       268.75,         82.5
   2203,       268.75,        81.25
   2204,       268.75,          80.
   2205,       268.75,        78.75
   2206,       268.75,         77.5
   2207,       268.75,        76.25
   2208,       268.75,          75.
   2209,       268.75,        73.75
   2210,       268.75,         72.5
   2211,       268.75,        71.25
   2212,       268.75,          70.
   2213,       268.75,        68.75
   2214,       268.75,         67.5
   2215,       268.75,        66.25
   2216,       268.75,          65.
   2217,       268.75,        63.75
   2218,       268.75,         62.5
   2219,       268.75,        61.25
   2220,       268.75,          60.
   2221,       268.75,        58.75
   2222,       268.75,         57.5
   2223,       268.75,        56.25
   2224,       268.75,          55.
   2225,       268.75,        53.75
   2226,       268.75,         52.5
   2227,       268.75,        51.25
   2228,       268.75,          50.
   2229,       268.75,        48.75
   2230,       268.75,         47.5
   2231,       268.75,        46.25
   2232,       268.75,          45.
   2233,       268.75,        43.75
   2234,       268.75,         42.5
   2235,       268.75,        41.25
   2236,       268.75,          40.
   2237,       268.75,        38.75
   2238,       268.75,         37.5
   2239,       268.75,        36.25
   2240,       268.75,          35.
   2241,       268.75,        33.75
   2242,       268.75,         32.5
   2243,       268.75,        31.25
   2244,       268.75,          30.
   2245,       268.75,        28.75
   2246,       268.75,         27.5
   2247,       268.75,        26.25
   2248,       268.75,          25.
   2249,       268.75,        23.75
   2250,       268.75,         22.5
   2251,       268.75,        21.25
   2252,       268.75,          20.
   2253,       268.75,        18.75
   2254,       268.75,         17.5
   2255,       268.75,        16.25
   2256,       268.75,          15.
   2257,       268.75,        13.75
   2258,       268.75,         12.5
   2259,       268.75,        11.25
   2260,       268.75,          10.
   2261,       268.75,         8.75
   2262,       268.75,          7.5
   2263,       268.75,         6.25
   2264,       268.75,           5.
   2265,       268.75,         3.75
   2266,       268.75,          2.5
   2267,       268.75,         1.25
   2268,         275.,        98.75
   2269,         275.,         97.5
   2270,         275.,        96.25
   2271,         275.,          95.
   2272,         275.,        93.75
   2273,         275.,         92.5
   2274,         275.,        91.25
   2275,         275.,          90.
   2276,         275.,        88.75
   2277,         275.,         87.5
   2278,         275.,        86.25
   2279,         275.,          85.
   2280,         275.,        83.75
   2281,         275.,         82.5
   2282,         275.,        81.25
   2283,         275.,          80.
   2284,         275.,        78.75
   2285,         275.,         77.5
   2286,         275.,        76.25
   2287,         275.,          75.
   2288,         275.,        73.75
   2289,         275.,         72.5
   2290,         275.,        71.25
   2291,         275.,          70.
   2292,         275.,        68.75
   2293,         275.,         67.5
   2294,         275.,        66.25
   2295,         275.,          65.
   2296,         275.,        63.75
   2297,         275.,         62.5
   2298,         275.,        61.25
   2299,         275.,          60.
   2300,         275.,        58.75
   2301,         275.,         57.5
   2302,         275.,        56.25
   2303,         275.,          55.
   2304,         275.,        53.75
   2305,         275.,         52.5
   2306,         275.,        51.25
   2307,         275.,          50.
   2308,         275.,        48.75
   2309,         275.,         47.5
   2310,         275.,        46.25
   2311,         275.,          45.
   2312,         275.,        43.75
   2313,         275.,         42.5
   2314,         275.,        41.25
   2315,         275.,          40.
   2316,         275.,        38.75
   2317,         275.,         37.5
   2318,         275.,        36.25
   2319,         275.,          35.
   2320,         275.,        33.75
   2321,         275.,         32.5
   2322,         275.,        31.25
   2323,         275.,          30.
   2324,         275.,        28.75
   2325,         275.,         27.5
   2326,         275.,        26.25
   2327,         275.,          25.
   2328,         275.,        23.75
   2329,         275.,         22.5
   2330,         275.,        21.25
   2331,         275.,          20.
   2332,         275.,        18.75
   2333,         275.,         17.5
   2334,         275.,        16.25
   2335,         275.,          15.
   2336,         275.,        13.75
   2337,         275.,         12.5
   2338,         275.,        11.25
   2339,         275.,          10.
   2340,         275.,         8.75
   2341,         275.,          7.5
   2342,         275.,         6.25
   2343,         275.,           5.
   2344,         275.,         3.75
   2345,         275.,          2.5
   2346,         275.,         1.25
   2347,       281.25,        98.75
   2348,       281.25,         97.5
   2349,       281.25,        96.25
   2350,       281.25,          95.
   2351,       281.25,        93.75
   2352,       281.25,         92.5
   2353,       281.25,        91.25
   2354,       281.25,          90.
   2355,       281.25,        88.75
   2356,       281.25,         87.5
   2357,       281.25,        86.25
   2358,       281.25,          85.
   2359,       281.25,        83.75
   2360,       281.25,         82.5
   2361,       281.25,        81.25
   2362,       281.25,          80.
   2363,       281.25,        78.75
   2364,       281.25,         77.5
   2365,       281.25,        76.25
   2366,       281.25,          75.
   2367,       281.25,        73.75
   2368,       281.25,         72.5
   2369,       281.25,        71.25
   2370,       281.25,          70.
   2371,       281.25,        68.75
   2372,       281.25,         67.5
   2373,       281.25,        66.25
   2374,       281.25,          65.
   2375,       281.25,        63.75
   2376,       281.25,         62.5
   2377,       281.25,        61.25
   2378,       281.25,          60.
   2379,       281.25,        58.75
   2380,       281.25,         57.5
   2381,       281.25,        56.25
   2382,       281.25,          55.
   2383,       281.25,        53.75
   2384,       281.25,         52.5
   2385,       281.25,        51.25
   2386,       281.25,          50.
   2387,       281.25,        48.75
   2388,       281.25,         47.5
   2389,       281.25,        46.25
   2390,       281.25,          45.
   2391,       281.25,        43.75
   2392,       281.25,         42.5
   2393,       281.25,        41.25
   2394,       281.25,          40.
   2395,       281.25,        38.75
   2396,       281.25,         37.5
   2397,       281.25,        36.25
   2398,       281.25,          35.
   2399,       281.25,        33.75
   2400,       281.25,         32.5
   2401,       281.25,        31.25
   2402,       281.25,          30.
   2403,       281.25,        28.75
   2404,       281.25,         27.5
   2405,       281.25,        26.25
   2406,       281.25,          25.
   2407,       281.25,        23.75
   2408,       281.25,         22.5
   2409,       281.25,        21.25
   2410,       281.25,          20.
   2411,       281.25,        18.75
   2412,       281.25,         17.5
   2413,       281.25,        16.25
   2414,       281.25,          15.
   2415,       281.25,        13.75
   2416,       281.25,         12.5
   2417,       281.25,        11.25
   2418,       281.25,          10.
   2419,       281.25,         8.75
   2420,       281.25,          7.5
   2421,       281.25,         6.25
   2422,       281.25,           5.
   2423,       281.25,         3.75
   2424,       281.25,          2.5
   2425,       281.25,         1.25
   2426,        287.5,        98.75
   2427,        287.5,         97.5
   2428,        287.5,        96.25
   2429,        287.5,          95.
   2430,        287.5,        93.75
   2431,        287.5,         92.5
   2432,        287.5,        91.25
   2433,        287.5,          90.
   2434,        287.5,        88.75
   2435,        287.5,         87.5
   2436,        287.5,        86.25
   2437,        287.5,          85.
   2438,        287.5,        83.75
   2439,        287.5,         82.5
   2440,        287.5,        81.25
   2441,        287.5,          80.
   2442,        287.5,        78.75
   2443,        287.5,         77.5
   2444,        287.5,        76.25
   2445,        287.5,          75.
   2446,        287.5,        73.75
   2447,        287.5,         72.5
   2448,        287.5,        71.25
   2449,        287.5,          70.
   2450,        287.5,        68.75
   2451,        287.5,         67.5
   2452,        287.5,        66.25
   2453,        287.5,          65.
   2454,        287.5,        63.75
   2455,        287.5,         62.5
   2456,        287.5,        61.25
   2457,        287.5,          60.
   2458,        287.5,        58.75
   2459,        287.5,         57.5
   2460,        287.5,        56.25
   2461,        287.5,          55.
   2462,        287.5,        53.75
   2463,        287.5,         52.5
   2464,        287.5,        51.25
   2465,        287.5,          50.
   2466,        287.5,        48.75
   2467,        287.5,         47.5
   2468,        287.5,        46.25
   2469,        287.5,          45.
   2470,        287.5,        43.75
   2471,        287.5,         42.5
   2472,        287.5,        41.25
   2473,        287.5,          40.
   2474,        287.5,        38.75
   2475,        287.5,         37.5
   2476,        287.5,        36.25
   2477,        287.5,          35.
   2478,        287.5,        33.75
   2479,        287.5,         32.5
   2480,        287.5,        31.25
   2481,        287.5,          30.
   2482,        287.5,        28.75
   2483,        287.5,         27.5
   2484,        287.5,        26.25
   2485,        287.5,          25.
   2486,        287.5,        23.75
   2487,        287.5,         22.5
   2488,        287.5,        21.25
   2489,        287.5,          20.
   2490,        287.5,        18.75
   2491,        287.5,         17.5
   2492,        287.5,        16.25
   2493,        287.5,          15.
   2494,        287.5,        13.75
   2495,        287.5,         12.5
   2496,        287.5,        11.25
   2497,        287.5,          10.
   2498,        287.5,         8.75
   2499,        287.5,          7.5
   2500,        287.5,         6.25
   2501,        287.5,           5.
   2502,        287.5,         3.75
   2503,        287.5,          2.5
   2504,        287.5,         1.25
   2505,       293.75,        98.75
   2506,       293.75,         97.5
   2507,       293.75,        96.25
   2508,       293.75,          95.
   2509,       293.75,        93.75
   2510,       293.75,         92.5
   2511,       293.75,        91.25
   2512,       293.75,          90.
   2513,       293.75,        88.75
   2514,       293.75,         87.5
   2515,       293.75,        86.25
   2516,       293.75,          85.
   2517,       293.75,        83.75
   2518,       293.75,         82.5
   2519,       293.75,        81.25
   2520,       293.75,          80.
   2521,       293.75,        78.75
   2522,       293.75,         77.5
   2523,       293.75,        76.25
   2524,       293.75,          75.
   2525,       293.75,        73.75
   2526,       293.75,         72.5
   2527,       293.75,        71.25
   2528,       293.75,          70.
   2529,       293.75,        68.75
   2530,       293.75,         67.5
   2531,       293.75,        66.25
   2532,       293.75,          65.
   2533,       293.75,        63.75
   2534,       293.75,         62.5
   2535,       293.75,        61.25
   2536,       293.75,          60.
   2537,       293.75,        58.75
   2538,       293.75,         57.5
   2539,       293.75,        56.25
   2540,       293.75,          55.
   2541,       293.75,        53.75
   2542,       293.75,         52.5
   2543,       293.75,        51.25
   2544,       293.75,          50.
   2545,       293.75,        48.75
   2546,       293.75,         47.5
   2547,       293.75,        46.25
   2548,       293.75,          45.
   2549,       293.75,        43.75
   2550,       293.75,         42.5
   2551,       293.75,        41.25
   2552,       293.75,          40.
   2553,       293.75,        38.75
   2554,       293.75,         37.5
   2555,       293.75,        36.25
   2556,       293.75,          35.
   2557,       293.75,        33.75
   2558,       293.75,         32.5
   2559,       293.75,        31.25
   2560,       293.75,          30.
   2561,       293.75,        28.75
   2562,       293.75,         27.5
   2563,       293.75,        26.25
   2564,       293.75,          25.
   2565,       293.75,        23.75
   2566,       293.75,         22.5
   2567,       293.75,        21.25
   2568,       293.75,          20.
   2569,       293.75,        18.75
   2570,       293.75,         17.5
   2571,       293.75,        16.25
   2572,       293.75,          15.
   2573,       293.75,        13.75
   2574,       293.75,         12.5
   2575,       293.75,        11.25
   2576,       293.75,          10.
   2577,       293.75,         8.75
   2578,       293.75,          7.5
   2579,       293.75,         6.25
   2580,       293.75,           5.
   2581,       293.75,         3.75
   2582,       293.75,          2.5
   2583,       293.75,         1.25
   2584,   198.784729,         1.25
   2585,   198.784729,          2.5
   2586,   198.784729,         3.75
   2587,   198.784729,           5.
   2588,   198.784729,         6.25
   2589,   198.784729,          7.5
   2590,   198.784729,         8.75
   2591,   198.784729,          10.
   2592,   198.784729,        11.25
   2593,   198.784729,         12.5
   2594,   198.784729,        13.75
   2595,   198.784729,          15.
   2596,   198.784729,        16.25
   2597,   198.784729,         17.5
   2598,   198.784729,        18.75
   2599,   198.784729,          20.
   2600,   198.784729,        21.25
   2601,   198.784729,         22.5
   2602,   198.784729,        23.75
   2603,   198.784729,          25.
   2604,   198.784729,        26.25
   2605,   198.784729,         27.5
   2606,   198.784729,        28.75
   2607,   198.784729,          30.
   2608,   198.784729,        31.25
   2609,   198.784729,         32.5
   2610,   198.784729,        33.75
   2611,   198.784729,          35.
   2612,   198.784729,        36.25
   2613,   198.784729,         37.5
   2614,   198.784729,        38.75
   2615,   198.784729,          40.
   2616,   198.784729,        41.25
   2617,   198.784729,         42.5
   2618,   198.784729,        43.75
   2619,   198.784729,          45.
   2620,   198.784729,        46.25
   2621,   198.784729,         47.5
   2622,   198.784729,        48.75
   2623,   198.784729,          50.
   2624,   198.784729,        51.25
   2625,   198.784729,         52.5
   2626,   198.784729,        53.75
   2627,   198.784729,          55.
   2628,   198.784729,        56.25
   2629,   198.784729,         57.5
   2630,   198.784729,        58.75
   2631,   198.784729,          60.
   2632,   198.784729,        61.25
   2633,   198.784729,         62.5
   2634,   198.784729,        63.75
   2635,   198.784729,          65.
   2636,   198.784729,        66.25
   2637,   198.784729,         67.5
   2638,   198.784729,        68.75
   2639,   198.784729,          70.
   2640,   198.784729,        71.25
   2641,   198.784729,         72.5
   2642,   198.784729,        73.75
   2643,   198.784729,          75.
   2644,   198.784729,        76.25
   2645,   198.784729,         77.5
   2646,   198.784729,        78.75
   2647,   198.784729,          80.
   2648,   198.784729,        81.25
   2649,   198.784729,         82.5
   2650,   198.784729,        83.75
   2651,   198.784729,          85.
   2652,   198.784729,        86.25
   2653,   198.784729,         87.5
   2654,   198.784729,        88.75
   2655,   198.784729,          90.
   2656,   198.784729,        91.25
   2657,   198.784729,         92.5
   2658,   198.784729,        93.75
   2659,   198.784729,          95.
   2660,   198.784729,        96.25
   2661,   198.784729,         97.5
   2662,   198.784729,        98.75
   2663,   197.569443,         1.25
   2664,   197.569443,          2.5
   2665,   197.569443,         3.75
   2666,   197.569443,           5.
   2667,   197.569443,         6.25
   2668,   197.569443,          7.5
   2669,   197.569443,         8.75
   2670,   197.569443,          10.
   2671,   197.569443,        11.25
   2672,   197.569443,         12.5
   2673,   197.569443,        13.75
   2674,   197.569443,          15.
   2675,   197.569443,        16.25
   2676,   197.569443,         17.5
   2677,   197.569443,        18.75
   2678,   197.569443,          20.
   2679,   197.569443,        21.25
   2680,   197.569443,         22.5
   2681,   197.569443,        23.75
   2682,   197.569443,          25.
   2683,   197.569443,        26.25
   2684,   197.569443,         27.5
   2685,   197.569443,        28.75
   2686,   197.569443,          30.
   2687,   197.569443,        31.25
   2688,   197.569443,         32.5
   2689,   197.569443,        33.75
   2690,   197.569443,          35.
   2691,   197.569443,        36.25
   2692,   197.569443,         37.5
   2693,   197.569443,        38.75
   2694,   197.569443,          40.
   2695,   197.569443,        41.25
   2696,   197.569443,         42.5
   2697,   197.569443,        43.75
   2698,   197.569443,          45.
   2699,   197.569443,        46.25
   2700,   197.569443,         47.5
   2701,   197.569443,        48.75
   2702,   197.569443,          50.
   2703,   197.569443,        51.25
   2704,   197.569443,         52.5
   2705,   197.569443,        53.75
   2706,   197.569443,          55.
   2707,   197.569443,        56.25
   2708,   197.569443,         57.5
   2709,   197.569443,        58.75
   2710,   197.569443,          60.
   2711,   197.569443,        61.25
   2712,   197.569443,         62.5
   2713,   197.569443,        63.75
   2714,   197.569443,          65.
   2715,   197.569443,        66.25
   2716,   197.569443,         67.5
   2717,   197.569443,        68.75
   2718,   197.569443,          70.
   2719,   197.569443,        71.25
   2720,   197.569443,         72.5
   2721,   197.569443,        73.75
   2722,   197.569443,          75.
   2723,   197.569443,        76.25
   2724,   197.569443,         77.5
   2725,   197.569443,        78.75
   2726,   197.569443,          80.
   2727,   197.569443,        81.25
   2728,   197.569443,         82.5
   2729,   197.569443,        83.75
   2730,   197.569443,          85.
   2731,   197.569443,        86.25
   2732,   197.569443,         87.5
   2733,   197.569443,        88.75
   2734,   197.569443,          90.
   2735,   197.569443,        91.25
   2736,   197.569443,         92.5
   2737,   197.569443,        93.75
   2738,   197.569443,          95.
   2739,   197.569443,        96.25
   2740,   197.569443,         97.5
   2741,   197.569443,        98.75
   2742,   196.354172,         1.25
   2743,   196.354172,          2.5
   2744,   196.354172,         3.75
   2745,   196.354172,           5.
   2746,   196.354172,         6.25
   2747,   196.354172,          7.5
   2748,   196.354172,         8.75
   2749,   196.354172,          10.
   2750,   196.354172,        11.25
   2751,   196.354172,         12.5
   2752,   196.354172,        13.75
   2753,   196.354172,          15.
   2754,   196.354172,        16.25
   2755,   196.354172,         17.5
   2756,   196.354172,        18.75
   2757,   196.354172,          20.
   2758,   196.354172,        21.25
   2759,   196.354172,         22.5
   2760,   196.354172,        23.75
   2761,   196.354172,          25.
   2762,   196.354172,        26.25
   2763,   196.354172,         27.5
   2764,   196.354172,        28.75
   2765,   196.354172,          30.
   2766,   196.354172,        31.25
   2767,   196.354172,         32.5
   2768,   196.354172,        33.75
   2769,   196.354172,          35.
   2770,   196.354172,        36.25
   2771,   196.354172,         37.5
   2772,   196.354172,        38.75
   2773,   196.354172,          40.
   2774,   196.354172,        41.25
   2775,   196.354172,         42.5
   2776,   196.354172,        43.75
   2777,   196.354172,          45.
   2778,   196.354172,        46.25
   2779,   196.354172,         47.5
   2780,   196.354172,        48.75
   2781,   196.354172,          50.
   2782,   196.354172,        51.25
   2783,   196.354172,         52.5
   2784,   196.354172,        53.75
   2785,   196.354172,          55.
   2786,   196.354172,        56.25
   2787,   196.354172,         57.5
   2788,   196.354172,        58.75
   2789,   196.354172,          60.
   2790,   196.354172,        61.25
   2791,   196.354172,         62.5
   2792,   196.354172,        63.75
   2793,   196.354172,          65.
   2794,   196.354172,        66.25
   2795,   196.354172,         67.5
   2796,   196.354172,        68.75
   2797,   196.354172,          70.
   2798,   196.354172,        71.25
   2799,   196.354172,         72.5
   2800,   196.354172,        73.75
   2801,   196.354172,          75.
   2802,   196.354172,        76.25
   2803,   196.354172,         77.5
   2804,   196.354172,        78.75
   2805,   196.354172,          80.
   2806,   196.354172,        81.25
   2807,   196.354172,         82.5
   2808,   196.354172,        83.75
   2809,   196.354172,          85.
   2810,   196.354172,        86.25
   2811,   196.354172,         87.5
   2812,   196.354172,        88.75
   2813,   196.354172,          90.
   2814,   196.354172,        91.25
   2815,   196.354172,         92.5
   2816,   196.354172,        93.75
   2817,   196.354172,          95.
   2818,   196.354172,        96.25
   2819,   196.354172,         97.5
   2820,   196.354172,        98.75
   2821,   195.138885,         1.25
   2822,   195.138885,          2.5
   2823,   195.138885,         3.75
   2824,   195.138885,           5.
   2825,   195.138885,         6.25
   2826,   195.138885,          7.5
   2827,   195.138885,         8.75
   2828,   195.138885,          10.
   2829,   195.138885,        11.25
   2830,   195.138885,         12.5
   2831,   195.138885,        13.75
   2832,   195.138885,          15.
   2833,   195.138885,        16.25
   2834,   195.138885,         17.5
   2835,   195.138885,        18.75
   2836,   195.138885,          20.
   2837,   195.138885,        21.25
   2838,   195.138885,         22.5
   2839,   195.138885,        23.75
   2840,   195.138885,          25.
   2841,   195.138885,        26.25
   2842,   195.138885,         27.5
   2843,   195.138885,        28.75
   2844,   195.138885,          30.
   2845,   195.138885,        31.25
   2846,   195.138885,         32.5
   2847,   195.138885,        33.75
   2848,   195.138885,          35.
   2849,   195.138885,        36.25
   2850,   195.138885,         37.5
   2851,   195.138885,        38.75
   2852,   195.138885,          40.
   2853,   195.138885,        41.25
   2854,   195.138885,         42.5
   2855,   195.138885,        43.75
   2856,   195.138885,          45.
   2857,   195.138885,        46.25
   2858,   195.138885,         47.5
   2859,   195.138885,        48.75
   2860,   195.138885,          50.
   2861,   195.138885,        51.25
   2862,   195.138885,         52.5
   2863,   195.138885,        53.75
   2864,   195.138885,          55.
   2865,   195.138885,        56.25
   2866,   195.138885,         57.5
   2867,   195.138885,        58.75
   2868,   195.138885,          60.
   2869,   195.138885,        61.25
   2870,   195.138885,         62.5
   2871,   195.138885,        63.75
   2872,   195.138885,          65.
   2873,   195.138885,        66.25
   2874,   195.138885,         67.5
   2875,   195.138885,        68.75
   2876,   195.138885,          70.
   2877,   195.138885,        71.25
   2878,   195.138885,         72.5
   2879,   195.138885,        73.75
   2880,   195.138885,          75.
   2881,   195.138885,        76.25
   2882,   195.138885,         77.5
   2883,   195.138885,        78.75
   2884,   195.138885,          80.
   2885,   195.138885,        81.25
   2886,   195.138885,         82.5
   2887,   195.138885,        83.75
   2888,   195.138885,          85.
   2889,   195.138885,        86.25
   2890,   195.138885,         87.5
   2891,   195.138885,        88.75
   2892,   195.138885,          90.
   2893,   195.138885,        91.25
   2894,   195.138885,         92.5
   2895,   195.138885,        93.75
   2896,   195.138885,          95.
   2897,   195.138885,        96.25
   2898,   195.138885,         97.5
   2899,   195.138885,        98.75
   2900,   193.923615,         1.25
   2901,   193.923615,          2.5
   2902,   193.923615,         3.75
   2903,   193.923615,           5.
   2904,   193.923615,         6.25
   2905,   193.923615,          7.5
   2906,   193.923615,         8.75
   2907,   193.923615,          10.
   2908,   193.923615,        11.25
   2909,   193.923615,         12.5
   2910,   193.923615,        13.75
   2911,   193.923615,          15.
   2912,   193.923615,        16.25
   2913,   193.923615,         17.5
   2914,   193.923615,        18.75
   2915,   193.923615,          20.
   2916,   193.923615,        21.25
   2917,   193.923615,         22.5
   2918,   193.923615,        23.75
   2919,   193.923615,          25.
   2920,   193.923615,        26.25
   2921,   193.923615,         27.5
   2922,   193.923615,        28.75
   2923,   193.923615,          30.
   2924,   193.923615,        31.25
   2925,   193.923615,         32.5
   2926,   193.923615,        33.75
   2927,   193.923615,          35.
   2928,   193.923615,        36.25
   2929,   193.923615,         37.5
   2930,   193.923615,        38.75
   2931,   193.923615,          40.
   2932,   193.923615,        41.25
   2933,   193.923615,         42.5
   2934,   193.923615,        43.75
   2935,   193.923615,          45.
   2936,   193.923615,        46.25
   2937,   193.923615,         47.5
   2938,   193.923615,        48.75
   2939,   193.923615,          50.
   2940,   193.923615,        51.25
   2941,   193.923615,         52.5
   2942,   193.923615,        53.75
   2943,   193.923615,          55.
   2944,   193.923615,        56.25
   2945,   193.923615,         57.5
   2946,   193.923615,        58.75
   2947,   193.923615,          60.
   2948,   193.923615,        61.25
   2949,   193.923615,         62.5
   2950,   193.923615,        63.75
   2951,   193.923615,          65.
   2952,   193.923615,        66.25
   2953,   193.923615,         67.5
   2954,   193.923615,        68.75
   2955,   193.923615,          70.
   2956,   193.923615,        71.25
   2957,   193.923615,         72.5
   2958,   193.923615,        73.75
   2959,   193.923615,          75.
   2960,   193.923615,        76.25
   2961,   193.923615,         77.5
   2962,   193.923615,        78.75
   2963,   193.923615,          80.
   2964,   193.923615,        81.25
   2965,   193.923615,         82.5
   2966,   193.923615,        83.75
   2967,   193.923615,          85.
   2968,   193.923615,        86.25
   2969,   193.923615,         87.5
   2970,   193.923615,        88.75
   2971,   193.923615,          90.
   2972,   193.923615,        91.25
   2973,   193.923615,         92.5
   2974,   193.923615,        93.75
   2975,   193.923615,          95.
   2976,   193.923615,        96.25
   2977,   193.923615,         97.5
   2978,   193.923615,        98.75
   2979,   192.708328,         1.25
   2980,   192.708328,          2.5
   2981,   192.708328,         3.75
   2982,   192.708328,           5.
   2983,   192.708328,         6.25
   2984,   192.708328,          7.5
   2985,   192.708328,         8.75
   2986,   192.708328,          10.
   2987,   192.708328,        11.25
   2988,   192.708328,         12.5
   2989,   192.708328,        13.75
   2990,   192.708328,          15.
   2991,   192.708328,        16.25
   2992,   192.708328,         17.5
   2993,   192.708328,        18.75
   2994,   192.708328,          20.
   2995,   192.708328,        21.25
   2996,   192.708328,         22.5
   2997,   192.708328,        23.75
   2998,   192.708328,          25.
   2999,   192.708328,        26.25
   3000,   192.708328,         27.5
   3001,   192.708328,        28.75
   3002,   192.708328,          30.
   3003,   192.708328,        31.25
   3004,   192.708328,         32.5
   3005,   192.708328,        33.75
   3006,   192.708328,          35.
   3007,   192.708328,        36.25
   3008,   192.708328,         37.5
   3009,   192.708328,        38.75
   3010,   192.708328,          40.
   3011,   192.708328,        41.25
   3012,   192.708328,         42.5
   3013,   192.708328,        43.75
   3014,   192.708328,          45.
   3015,   192.708328,        46.25
   3016,   192.708328,         47.5
   3017,   192.708328,        48.75
   3018,   192.708328,          50.
   3019,   192.708328,        51.25
   3020,   192.708328,         52.5
   3021,   192.708328,        53.75
   3022,   192.708328,          55.
   3023,   192.708328,        56.25
   3024,   192.708328,         57.5
   3025,   192.708328,        58.75
   3026,   192.708328,          60.
   3027,   192.708328,        61.25
   3028,   192.708328,         62.5
   3029,   192.708328,        63.75
   3030,   192.708328,          65.
   3031,   192.708328,        66.25
   3032,   192.708328,         67.5
   3033,   192.708328,        68.75
   3034,   192.708328,          70.
   3035,   192.708328,        71.25
   3036,   192.708328,         72.5
   3037,   192.708328,        73.75
   3038,   192.708328,          75.
   3039,   192.708328,        76.25
   3040,   192.708328,         77.5
   3041,   192.708328,        78.75
   3042,   192.708328,          80.
   3043,   192.708328,        81.25
   3044,   192.708328,         82.5
   3045,   192.708328,        83.75
   3046,   192.708328,          85.
   3047,   192.708328,        86.25
   3048,   192.708328,         87.5
   3049,   192.708328,        88.75
   3050,   192.708328,          90.
   3051,   192.708328,        91.25
   3052,   192.708328,         92.5
   3053,   192.708328,        93.75
   3054,   192.708328,          95.
   3055,   192.708328,        96.25
   3056,   192.708328,         97.5
   3057,   192.708328,        98.75
   3058,   191.493057,         1.25
   3059,   191.493057,          2.5
   3060,   191.493057,         3.75
   3061,   191.493057,           5.
   3062,   191.493057,         6.25
   3063,   191.493057,          7.5
   3064,   191.493057,         8.75
   3065,   191.493057,          10.
   3066,   191.493057,        11.25
   3067,   191.493057,         12.5
   3068,   191.493057,        13.75
   3069,   191.493057,          15.
   3070,   191.493057,        16.25
   3071,   191.493057,         17.5
   3072,   191.493057,        18.75
   3073,   191.493057,          20.
   3074,   191.493057,        21.25
   3075,   191.493057,         22.5
   3076,   191.493057,        23.75
   3077,   191.493057,          25.
   3078,   191.493057,        26.25
   3079,   191.493057,         27.5
   3080,   191.493057,        28.75
   3081,   191.493057,          30.
   3082,   191.493057,        31.25
   3083,   191.493057,         32.5
   3084,   191.493057,        33.75
   3085,   191.493057,          35.
   3086,   191.493057,        36.25
   3087,   191.493057,         37.5
   3088,   191.493057,        38.75
   3089,   191.493057,          40.
   3090,   191.493057,        41.25
   3091,   191.493057,         42.5
   3092,   191.493057,        43.75
   3093,   191.493057,          45.
   3094,   191.493057,        46.25
   3095,   191.493057,         47.5
   3096,   191.493057,        48.75
   3097,   191.493057,          50.
   3098,   191.493057,        51.25
   3099,   191.493057,         52.5
   3100,   191.493057,        53.75
   3101,   191.493057,          55.
   3102,   191.493057,        56.25
   3103,   191.493057,         57.5
   3104,   191.493057,        58.75
   3105,   191.493057,          60.
   3106,   191.493057,        61.25
   3107,   191.493057,         62.5
   3108,   191.493057,        63.75
   3109,   191.493057,          65.
   3110,   191.493057,        66.25
   3111,   191.493057,         67.5
   3112,   191.493057,        68.75
   3113,   191.493057,          70.
   3114,   191.493057,        71.25
   3115,   191.493057,         72.5
   3116,   191.493057,        73.75
   3117,   191.493057,          75.
   3118,   191.493057,        76.25
   3119,   191.493057,         77.5
   3120,   191.493057,        78.75
   3121,   191.493057,          80.
   3122,   191.493057,        81.25
   3123,   191.493057,         82.5
   3124,   191.493057,        83.75
   3125,   191.493057,          85.
   3126,   191.493057,        86.25
   3127,   191.493057,         87.5
   3128,   191.493057,        88.75
   3129,   191.493057,          90.
   3130,   191.493057,        91.25
   3131,   191.493057,         92.5
   3132,   191.493057,        93.75
   3133,   191.493057,          95.
   3134,   191.493057,        96.25
   3135,   191.493057,         97.5
   3136,   191.493057,        98.75
   3137,   190.277771,         1.25
   3138,   190.277771,          2.5
   3139,   190.277771,         3.75
   3140,   190.277771,           5.
   3141,   190.277771,         6.25
   3142,   190.277771,          7.5
   3143,   190.277771,         8.75
   3144,   190.277771,          10.
   3145,   190.277771,        11.25
   3146,   190.277771,         12.5
   3147,   190.277771,        13.75
   3148,   190.277771,          15.
   3149,   190.277771,        16.25
   3150,   190.277771,         17.5
   3151,   190.277771,        18.75
   3152,   190.277771,          20.
   3153,   190.277771,        21.25
   3154,   190.277771,         22.5
   3155,   190.277771,        23.75
   3156,   190.277771,          25.
   3157,   190.277771,        26.25
   3158,   190.277771,         27.5
   3159,   190.277771,        28.75
   3160,   190.277771,          30.
   3161,   190.277771,        31.25
   3162,   190.277771,         32.5
   3163,   190.277771,        33.75
   3164,   190.277771,          35.
   3165,   190.277771,        36.25
   3166,   190.277771,         37.5
   3167,   190.277771,        38.75
   3168,   190.277771,          40.
   3169,   190.277771,        41.25
   3170,   190.277771,         42.5
   3171,   190.277771,        43.75
   3172,   190.277771,          45.
   3173,   190.277771,        46.25
   3174,   190.277771,         47.5
   3175,   190.277771,        48.75
   3176,   190.277771,          50.
   3177,   190.277771,        51.25
   3178,   190.277771,         52.5
   3179,   190.277771,        53.75
   3180,   190.277771,          55.
   3181,   190.277771,        56.25
   3182,   190.277771,         57.5
   3183,   190.277771,        58.75
   3184,   190.277771,          60.
   3185,   190.277771,        61.25
   3186,   190.277771,         62.5
   3187,   190.277771,        63.75
   3188,   190.277771,          65.
   3189,   190.277771,        66.25
   3190,   190.277771,         67.5
   3191,   190.277771,        68.75
   3192,   190.277771,          70.
   3193,   190.277771,        71.25
   3194,   190.277771,         72.5
   3195,   190.277771,        73.75
   3196,   190.277771,          75.
   3197,   190.277771,        76.25
   3198,   190.277771,         77.5
   3199,   190.277771,        78.75
   3200,   190.277771,          80.
   3201,   190.277771,        81.25
   3202,   190.277771,         82.5
   3203,   190.277771,        83.75
   3204,   190.277771,          85.
   3205,   190.277771,        86.25
   3206,   190.277771,         87.5
   3207,   190.277771,        88.75
   3208,   190.277771,          90.
   3209,   190.277771,        91.25
   3210,   190.277771,         92.5
   3211,   190.277771,        93.75
   3212,   190.277771,          95.
   3213,   190.277771,        96.25
   3214,   190.277771,         97.5
   3215,   190.277771,        98.75
   3216,     189.0625,         1.25
   3217,     189.0625,          2.5
   3218,     189.0625,         3.75
   3219,     189.0625,           5.
   3220,     189.0625,         6.25
   3221,     189.0625,          7.5
   3222,     189.0625,         8.75
   3223,     189.0625,          10.
   3224,     189.0625,        11.25
   3225,     189.0625,         12.5
   3226,     189.0625,        13.75
   3227,     189.0625,          15.
   3228,     189.0625,        16.25
   3229,     189.0625,         17.5
   3230,     189.0625,        18.75
   3231,     189.0625,          20.
   3232,     189.0625,        21.25
   3233,     189.0625,         22.5
   3234,     189.0625,        23.75
   3235,     189.0625,          25.
   3236,     189.0625,        26.25
   3237,     189.0625,         27.5
   3238,     189.0625,        28.75
   3239,     189.0625,          30.
   3240,     189.0625,        31.25
   3241,     189.0625,         32.5
   3242,     189.0625,        33.75
   3243,     189.0625,          35.
   3244,     189.0625,        36.25
   3245,     189.0625,         37.5
   3246,     189.0625,        38.75
   3247,     189.0625,          40.
   3248,     189.0625,        41.25
   3249,     189.0625,         42.5
   3250,     189.0625,        43.75
   3251,     189.0625,          45.
   3252,     189.0625,        46.25
   3253,     189.0625,         47.5
   3254,     189.0625,        48.75
   3255,     189.0625,          50.
   3256,     189.0625,        51.25
   3257,     189.0625,         52.5
   3258,     189.0625,        53.75
   3259,     189.0625,          55.
   3260,     189.0625,        56.25
   3261,     189.0625,         57.5
   3262,     189.0625,        58.75
   3263,     189.0625,          60.
   3264,     189.0625,        61.25
   3265,     189.0625,         62.5
   3266,     189.0625,        63.75
   3267,     189.0625,          65.
   3268,     189.0625,        66.25
   3269,     189.0625,         67.5
   3270,     189.0625,        68.75
   3271,     189.0625,          70.
   3272,     189.0625,        71.25
   3273,     189.0625,         72.5
   3274,     189.0625,        73.75
   3275,     189.0625,          75.
   3276,     189.0625,        76.25
   3277,     189.0625,         77.5
   3278,     189.0625,        78.75
   3279,     189.0625,          80.
   3280,     189.0625,        81.25
   3281,     189.0625,         82.5
   3282,     189.0625,        83.75
   3283,     189.0625,          85.
   3284,     189.0625,        86.25
   3285,     189.0625,         87.5
   3286,     189.0625,        88.75
   3287,     189.0625,          90.
   3288,     189.0625,        91.25
   3289,     189.0625,         92.5
   3290,     189.0625,        93.75
   3291,     189.0625,          95.
   3292,     189.0625,        96.25
   3293,     189.0625,         97.5
   3294,     189.0625,        98.75
   3295,   187.847229,         1.25
   3296,   187.847229,          2.5
   3297,   187.847229,         3.75
   3298,   187.847229,           5.
   3299,   187.847229,         6.25
   3300,   187.847229,          7.5
   3301,   187.847229,         8.75
   3302,   187.847229,          10.
   3303,   187.847229,        11.25
   3304,   187.847229,         12.5
   3305,   187.847229,        13.75
   3306,   187.847229,          15.
   3307,   187.847229,        16.25
   3308,   187.847229,         17.5
   3309,   187.847229,        18.75
   3310,   187.847229,          20.
   3311,   187.847229,        21.25
   3312,   187.847229,         22.5
   3313,   187.847229,        23.75
   3314,   187.847229,          25.
   3315,   187.847229,        26.25
   3316,   187.847229,         27.5
   3317,   187.847229,        28.75
   3318,   187.847229,          30.
   3319,   187.847229,        31.25
   3320,   187.847229,         32.5
   3321,   187.847229,        33.75
   3322,   187.847229,          35.
   3323,   187.847229,        36.25
   3324,   187.847229,         37.5
   3325,   187.847229,        38.75
   3326,   187.847229,          40.
   3327,   187.847229,        41.25
   3328,   187.847229,         42.5
   3329,   187.847229,        43.75
   3330,   187.847229,          45.
   3331,   187.847229,        46.25
   3332,   187.847229,         47.5
   3333,   187.847229,        48.75
   3334,   187.847229,          50.
   3335,   187.847229,        51.25
   3336,   187.847229,         52.5
   3337,   187.847229,        53.75
   3338,   187.847229,          55.
   3339,   187.847229,        56.25
   3340,   187.847229,         57.5
   3341,   187.847229,        58.75
   3342,   187.847229,          60.
   3343,   187.847229,        61.25
   3344,   187.847229,         62.5
   3345,   187.847229,        63.75
   3346,   187.847229,          65.
   3347,   187.847229,        66.25
   3348,   187.847229,         67.5
   3349,   187.847229,        68.75
   3350,   187.847229,          70.
   3351,   187.847229,        71.25
   3352,   187.847229,         72.5
   3353,   187.847229,        73.75
   3354,   187.847229,          75.
   3355,   187.847229,        76.25
   3356,   187.847229,         77.5
   3357,   187.847229,        78.75
   3358,   187.847229,          80.
   3359,   187.847229,        81.25
   3360,   187.847229,         82.5
   3361,   187.847229,        83.75
   3362,   187.847229,          85.
   3363,   187.847229,        86.25
   3364,   187.847229,         87.5
   3365,   187.847229,        88.75
   3366,   187.847229,          90.
   3367,   187.847229,        91.25
   3368,   187.847229,         92.5
   3369,   187.847229,        93.75
   3370,   187.847229,          95.
   3371,   187.847229,        96.25
   3372,   187.847229,         97.5
   3373,   187.847229,        98.75
   3374,   186.631943,         1.25
   3375,   186.631943,          2.5
   3376,   186.631943,         3.75
   3377,   186.631943,           5.
   3378,   186.631943,         6.25
   3379,   186.631943,          7.5
   3380,   186.631943,         8.75
   3381,   186.631943,          10.
   3382,   186.631943,        11.25
   3383,   186.631943,         12.5
   3384,   186.631943,        13.75
   3385,   186.631943,          15.
   3386,   186.631943,        16.25
   3387,   186.631943,         17.5
   3388,   186.631943,        18.75
   3389,   186.631943,          20.
   3390,   186.631943,        21.25
   3391,   186.631943,         22.5
   3392,   186.631943,        23.75
   3393,   186.631943,          25.
   3394,   186.631943,        26.25
   3395,   186.631943,         27.5
   3396,   186.631943,        28.75
   3397,   186.631943,          30.
   3398,   186.631943,        31.25
   3399,   186.631943,         32.5
   3400,   186.631943,        33.75
   3401,   186.631943,          35.
   3402,   186.631943,        36.25
   3403,   186.631943,         37.5
   3404,   186.631943,        38.75
   3405,   186.631943,          40.
   3406,   186.631943,        41.25
   3407,   186.631943,         42.5
   3408,   186.631943,        43.75
   3409,   186.631943,          45.
   3410,   186.631943,        46.25
   3411,   186.631943,         47.5
   3412,   186.631943,        48.75
   3413,   186.631943,          50.
   3414,   186.631943,        51.25
   3415,   186.631943,         52.5
   3416,   186.631943,        53.75
   3417,   186.631943,          55.
   3418,   186.631943,        56.25
   3419,   186.631943,         57.5
   3420,   186.631943,        58.75
   3421,   186.631943,          60.
   3422,   186.631943,        61.25
   3423,   186.631943,         62.5
   3424,   186.631943,        63.75
   3425,   186.631943,          65.
   3426,   186.631943,        66.25
   3427,   186.631943,         67.5
   3428,   186.631943,        68.75
   3429,   186.631943,          70.
   3430,   186.631943,        71.25
   3431,   186.631943,         72.5
   3432,   186.631943,        73.75
   3433,   186.631943,          75.
   3434,   186.631943,        76.25
   3435,   186.631943,         77.5
   3436,   186.631943,        78.75
   3437,   186.631943,          80.
   3438,   186.631943,        81.25
   3439,   186.631943,         82.5
   3440,   186.631943,        83.75
   3441,   186.631943,          85.
   3442,   186.631943,        86.25
   3443,   186.631943,         87.5
   3444,   186.631943,        88.75
   3445,   186.631943,          90.
   3446,   186.631943,        91.25
   3447,   186.631943,         92.5
   3448,   186.631943,        93.75
   3449,   186.631943,          95.
   3450,   186.631943,        96.25
   3451,   186.631943,         97.5
   3452,   186.631943,        98.75
   3453,   185.416672,         1.25
   3454,   185.416672,          2.5
   3455,   185.416672,         3.75
   3456,   185.416672,           5.
   3457,   185.416672,         6.25
   3458,   185.416672,          7.5
   3459,   185.416672,         8.75
   3460,   185.416672,          10.
   3461,   185.416672,        11.25
   3462,   185.416672,         12.5
   3463,   185.416672,        13.75
   3464,   185.416672,          15.
   3465,   185.416672,        16.25
   3466,   185.416672,         17.5
   3467,   185.416672,        18.75
   3468,   185.416672,          20.
   3469,   185.416672,        21.25
   3470,   185.416672,         22.5
   3471,   185.416672,        23.75
   3472,   185.416672,          25.
   3473,   185.416672,        26.25
   3474,   185.416672,         27.5
   3475,   185.416672,        28.75
   3476,   185.416672,          30.
   3477,   185.416672,        31.25
   3478,   185.416672,         32.5
   3479,   185.416672,        33.75
   3480,   185.416672,          35.
   3481,   185.416672,        36.25
   3482,   185.416672,         37.5
   3483,   185.416672,        38.75
   3484,   185.416672,          40.
   3485,   185.416672,        41.25
   3486,   185.416672,         42.5
   3487,   185.416672,        43.75
   3488,   185.416672,          45.
   3489,   185.416672,        46.25
   3490,   185.416672,         47.5
   3491,   185.416672,        48.75
   3492,   185.416672,          50.
   3493,   185.416672,        51.25
   3494,   185.416672,         52.5
   3495,   185.416672,        53.75
   3496,   185.416672,          55.
   3497,   185.416672,        56.25
   3498,   185.416672,         57.5
   3499,   185.416672,        58.75
   3500,   185.416672,          60.
   3501,   185.416672,        61.25
   3502,   185.416672,         62.5
   3503,   185.416672,        63.75
   3504,   185.416672,          65.
   3505,   185.416672,        66.25
   3506,   185.416672,         67.5
   3507,   185.416672,        68.75
   3508,   185.416672,          70.
   3509,   185.416672,        71.25
   3510,   185.416672,         72.5
   3511,   185.416672,        73.75
   3512,   185.416672,          75.
   3513,   185.416672,        76.25
   3514,   185.416672,         77.5
   3515,   185.416672,        78.75
   3516,   185.416672,          80.
   3517,   185.416672,        81.25
   3518,   185.416672,         82.5
   3519,   185.416672,        83.75
   3520,   185.416672,          85.
   3521,   185.416672,        86.25
   3522,   185.416672,         87.5
   3523,   185.416672,        88.75
   3524,   185.416672,          90.
   3525,   185.416672,        91.25
   3526,   185.416672,         92.5
   3527,   185.416672,        93.75
   3528,   185.416672,          95.
   3529,   185.416672,        96.25
   3530,   185.416672,         97.5
   3531,   185.416672,        98.75
   3532,   184.201385,         1.25
   3533,   184.201385,          2.5
   3534,   184.201385,         3.75
   3535,   184.201385,           5.
   3536,   184.201385,         6.25
   3537,   184.201385,          7.5
   3538,   184.201385,         8.75
   3539,   184.201385,          10.
   3540,   184.201385,        11.25
   3541,   184.201385,         12.5
   3542,   184.201385,        13.75
   3543,   184.201385,          15.
   3544,   184.201385,        16.25
   3545,   184.201385,         17.5
   3546,   184.201385,        18.75
   3547,   184.201385,          20.
   3548,   184.201385,        21.25
   3549,   184.201385,         22.5
   3550,   184.201385,        23.75
   3551,   184.201385,          25.
   3552,   184.201385,        26.25
   3553,   184.201385,         27.5
   3554,   184.201385,        28.75
   3555,   184.201385,          30.
   3556,   184.201385,        31.25
   3557,   184.201385,         32.5
   3558,   184.201385,        33.75
   3559,   184.201385,          35.
   3560,   184.201385,        36.25
   3561,   184.201385,         37.5
   3562,   184.201385,        38.75
   3563,   184.201385,          40.
   3564,   184.201385,        41.25
   3565,   184.201385,         42.5
   3566,   184.201385,        43.75
   3567,   184.201385,          45.
   3568,   184.201385,        46.25
   3569,   184.201385,         47.5
   3570,   184.201385,        48.75
   3571,   184.201385,          50.
   3572,   184.201385,        51.25
   3573,   184.201385,         52.5
   3574,   184.201385,        53.75
   3575,   184.201385,          55.
   3576,   184.201385,        56.25
   3577,   184.201385,         57.5
   3578,   184.201385,        58.75
   3579,   184.201385,          60.
   3580,   184.201385,        61.25
   3581,   184.201385,         62.5
   3582,   184.201385,        63.75
   3583,   184.201385,          65.
   3584,   184.201385,        66.25
   3585,   184.201385,         67.5
   3586,   184.201385,        68.75
   3587,   184.201385,          70.
   3588,   184.201385,        71.25
   3589,   184.201385,         72.5
   3590,   184.201385,        73.75
   3591,   184.201385,          75.
   3592,   184.201385,        76.25
   3593,   184.201385,         77.5
   3594,   184.201385,        78.75
   3595,   184.201385,          80.
   3596,   184.201385,        81.25
   3597,   184.201385,         82.5
   3598,   184.201385,        83.75
   3599,   184.201385,          85.
   3600,   184.201385,        86.25
   3601,   184.201385,         87.5
   3602,   184.201385,        88.75
   3603,   184.201385,          90.
   3604,   184.201385,        91.25
   3605,   184.201385,         92.5
   3606,   184.201385,        93.75
   3607,   184.201385,          95.
   3608,   184.201385,        96.25
   3609,   184.201385,         97.5
   3610,   184.201385,        98.75
   3611,   182.986115,         1.25
   3612,   182.986115,          2.5
   3613,   182.986115,         3.75
   3614,   182.986115,           5.
   3615,   182.986115,         6.25
   3616,   182.986115,          7.5
   3617,   182.986115,         8.75
   3618,   182.986115,          10.
   3619,   182.986115,        11.25
   3620,   182.986115,         12.5
   3621,   182.986115,        13.75
   3622,   182.986115,          15.
   3623,   182.986115,        16.25
   3624,   182.986115,         17.5
   3625,   182.986115,        18.75
   3626,   182.986115,          20.
   3627,   182.986115,        21.25
   3628,   182.986115,         22.5
   3629,   182.986115,        23.75
   3630,   182.986115,          25.
   3631,   182.986115,        26.25
   3632,   182.986115,         27.5
   3633,   182.986115,        28.75
   3634,   182.986115,          30.
   3635,   182.986115,        31.25
   3636,   182.986115,         32.5
   3637,   182.986115,        33.75
   3638,   182.986115,          35.
   3639,   182.986115,        36.25
   3640,   182.986115,         37.5
   3641,   182.986115,        38.75
   3642,   182.986115,          40.
   3643,   182.986115,        41.25
   3644,   182.986115,         42.5
   3645,   182.986115,        43.75
   3646,   182.986115,          45.
   3647,   182.986115,        46.25
   3648,   182.986115,         47.5
   3649,   182.986115,        48.75
   3650,   182.986115,          50.
   3651,   182.986115,        51.25
   3652,   182.986115,         52.5
   3653,   182.986115,        53.75
   3654,   182.986115,          55.
   3655,   182.986115,        56.25
   3656,   182.986115,         57.5
   3657,   182.986115,        58.75
   3658,   182.986115,          60.
   3659,   182.986115,        61.25
   3660,   182.986115,         62.5
   3661,   182.986115,        63.75
   3662,   182.986115,          65.
   3663,   182.986115,        66.25
   3664,   182.986115,         67.5
   3665,   182.986115,        68.75
   3666,   182.986115,          70.
   3667,   182.986115,        71.25
   3668,   182.986115,         72.5
   3669,   182.986115,        73.75
   3670,   182.986115,          75.
   3671,   182.986115,        76.25
   3672,   182.986115,         77.5
   3673,   182.986115,        78.75
   3674,   182.986115,          80.
   3675,   182.986115,        81.25
   3676,   182.986115,         82.5
   3677,   182.986115,        83.75
   3678,   182.986115,          85.
   3679,   182.986115,        86.25
   3680,   182.986115,         87.5
   3681,   182.986115,        88.75
   3682,   182.986115,          90.
   3683,   182.986115,        91.25
   3684,   182.986115,         92.5
   3685,   182.986115,        93.75
   3686,   182.986115,          95.
   3687,   182.986115,        96.25
   3688,   182.986115,         97.5
   3689,   182.986115,        98.75
   3690,   181.770828,         1.25
   3691,   181.770828,          2.5
   3692,   181.770828,         3.75
   3693,   181.770828,           5.
   3694,   181.770828,         6.25
   3695,   181.770828,          7.5
   3696,   181.770828,         8.75
   3697,   181.770828,          10.
   3698,   181.770828,        11.25
   3699,   181.770828,         12.5
   3700,   181.770828,        13.75
   3701,   181.770828,          15.
   3702,   181.770828,        16.25
   3703,   181.770828,         17.5
   3704,   181.770828,        18.75
   3705,   181.770828,          20.
   3706,   181.770828,        21.25
   3707,   181.770828,         22.5
   3708,   181.770828,        23.75
   3709,   181.770828,          25.
   3710,   181.770828,        26.25
   3711,   181.770828,         27.5
   3712,   181.770828,        28.75
   3713,   181.770828,          30.
   3714,   181.770828,        31.25
   3715,   181.770828,         32.5
   3716,   181.770828,        33.75
   3717,   181.770828,          35.
   3718,   181.770828,        36.25
   3719,   181.770828,         37.5
   3720,   181.770828,        38.75
   3721,   181.770828,          40.
   3722,   181.770828,        41.25
   3723,   181.770828,         42.5
   3724,   181.770828,        43.75
   3725,   181.770828,          45.
   3726,   181.770828,        46.25
   3727,   181.770828,         47.5
   3728,   181.770828,        48.75
   3729,   181.770828,          50.
   3730,   181.770828,        51.25
   3731,   181.770828,         52.5
   3732,   181.770828,        53.75
   3733,   181.770828,          55.
   3734,   181.770828,        56.25
   3735,   181.770828,         57.5
   3736,   181.770828,        58.75
   3737,   181.770828,          60.
   3738,   181.770828,        61.25
   3739,   181.770828,         62.5
   3740,   181.770828,        63.75
   3741,   181.770828,          65.
   3742,   181.770828,        66.25
   3743,   181.770828,         67.5
   3744,   181.770828,        68.75
   3745,   181.770828,          70.
   3746,   181.770828,        71.25
   3747,   181.770828,         72.5
   3748,   181.770828,        73.75
   3749,   181.770828,          75.
   3750,   181.770828,        76.25
   3751,   181.770828,         77.5
   3752,   181.770828,        78.75
   3753,   181.770828,          80.
   3754,   181.770828,        81.25
   3755,   181.770828,         82.5
   3756,   181.770828,        83.75
   3757,   181.770828,          85.
   3758,   181.770828,        86.25
   3759,   181.770828,         87.5
   3760,   181.770828,        88.75
   3761,   181.770828,          90.
   3762,   181.770828,        91.25
   3763,   181.770828,         92.5
   3764,   181.770828,        93.75
   3765,   181.770828,          95.
   3766,   181.770828,        96.25
   3767,   181.770828,         97.5
   3768,   181.770828,        98.75
   3769,   180.555557,         1.25
   3770,   180.555557,          2.5
   3771,   180.555557,         3.75
   3772,   180.555557,           5.
   3773,   180.555557,         6.25
   3774,   180.555557,          7.5
   3775,   180.555557,         8.75
   3776,   180.555557,          10.
   3777,   180.555557,        11.25
   3778,   180.555557,         12.5
   3779,   180.555557,        13.75
   3780,   180.555557,          15.
   3781,   180.555557,        16.25
   3782,   180.555557,         17.5
   3783,   180.555557,        18.75
   3784,   180.555557,          20.
   3785,   180.555557,        21.25
   3786,   180.555557,         22.5
   3787,   180.555557,        23.75
   3788,   180.555557,          25.
   3789,   180.555557,        26.25
   3790,   180.555557,         27.5
   3791,   180.555557,        28.75
   3792,   180.555557,          30.
   3793,   180.555557,        31.25
   3794,   180.555557,         32.5
   3795,   180.555557,        33.75
   3796,   180.555557,          35.
   3797,   180.555557,        36.25
   3798,   180.555557,         37.5
   3799,   180.555557,        38.75
   3800,   180.555557,          40.
   3801,   180.555557,        41.25
   3802,   180.555557,         42.5
   3803,   180.555557,        43.75
   3804,   180.555557,          45.
   3805,   180.555557,        46.25
   3806,   180.555557,         47.5
   3807,   180.555557,        48.75
   3808,   180.555557,          50.
   3809,   180.555557,        51.25
   3810,   180.555557,         52.5
   3811,   180.555557,        53.75
   3812,   180.555557,          55.
   3813,   180.555557,        56.25
   3814,   180.555557,         57.5
   3815,   180.555557,        58.75
   3816,   180.555557,          60.
   3817,   180.555557,        61.25
   3818,   180.555557,         62.5
   3819,   180.555557,        63.75
   3820,   180.555557,          65.
   3821,   180.555557,        66.25
   3822,   180.555557,         67.5
   3823,   180.555557,        68.75
   3824,   180.555557,          70.
   3825,   180.555557,        71.25
   3826,   180.555557,         72.5
   3827,   180.555557,        73.75
   3828,   180.555557,          75.
   3829,   180.555557,        76.25
   3830,   180.555557,         77.5
   3831,   180.555557,        78.75
   3832,   180.555557,          80.
   3833,   180.555557,        81.25
   3834,   180.555557,         82.5
   3835,   180.555557,        83.75
   3836,   180.555557,          85.
   3837,   180.555557,        86.25
   3838,   180.555557,         87.5
   3839,   180.555557,        88.75
   3840,   180.555557,          90.
   3841,   180.555557,        91.25
   3842,   180.555557,         92.5
   3843,   180.555557,        93.75
   3844,   180.555557,          95.
   3845,   180.555557,        96.25
   3846,   180.555557,         97.5
   3847,   180.555557,        98.75
   3848,   179.340271,         1.25
   3849,   179.340271,          2.5
   3850,   179.340271,         3.75
   3851,   179.340271,           5.
   3852,   179.340271,         6.25
   3853,   179.340271,          7.5
   3854,   179.340271,         8.75
   3855,   179.340271,          10.
   3856,   179.340271,        11.25
   3857,   179.340271,         12.5
   3858,   179.340271,        13.75
   3859,   179.340271,          15.
   3860,   179.340271,        16.25
   3861,   179.340271,         17.5
   3862,   179.340271,        18.75
   3863,   179.340271,          20.
   3864,   179.340271,        21.25
   3865,   179.340271,         22.5
   3866,   179.340271,        23.75
   3867,   179.340271,          25.
   3868,   179.340271,        26.25
   3869,   179.340271,         27.5
   3870,   179.340271,        28.75
   3871,   179.340271,          30.
   3872,   179.340271,        31.25
   3873,   179.340271,         32.5
   3874,   179.340271,        33.75
   3875,   179.340271,          35.
   3876,   179.340271,        36.25
   3877,   179.340271,         37.5
   3878,   179.340271,        38.75
   3879,   179.340271,          40.
   3880,   179.340271,        41.25
   3881,   179.340271,         42.5
   3882,   179.340271,        43.75
   3883,   179.340271,          45.
   3884,   179.340271,        46.25
   3885,   179.340271,         47.5
   3886,   179.340271,        48.75
   3887,   179.340271,          50.
   3888,   179.340271,        51.25
   3889,   179.340271,         52.5
   3890,   179.340271,        53.75
   3891,   179.340271,          55.
   3892,   179.340271,        56.25
   3893,   179.340271,         57.5
   3894,   179.340271,        58.75
   3895,   179.340271,          60.
   3896,   179.340271,        61.25
   3897,   179.340271,         62.5
   3898,   179.340271,        63.75
   3899,   179.340271,          65.
   3900,   179.340271,        66.25
   3901,   179.340271,         67.5
   3902,   179.340271,        68.75
   3903,   179.340271,          70.
   3904,   179.340271,        71.25
   3905,   179.340271,         72.5
   3906,   179.340271,        73.75
   3907,   179.340271,          75.
   3908,   179.340271,        76.25
   3909,   179.340271,         77.5
   3910,   179.340271,        78.75
   3911,   179.340271,          80.
   3912,   179.340271,        81.25
   3913,   179.340271,         82.5
   3914,   179.340271,        83.75
   3915,   179.340271,          85.
   3916,   179.340271,        86.25
   3917,   179.340271,         87.5
   3918,   179.340271,        88.75
   3919,   179.340271,          90.
   3920,   179.340271,        91.25
   3921,   179.340271,         92.5
   3922,   179.340271,        93.75
   3923,   179.340271,          95.
   3924,   179.340271,        96.25
   3925,   179.340271,         97.5
   3926,   179.340271,        98.75
   3927,   170.659729,         1.25
   3928,   170.659729,          2.5
   3929,   170.659729,         3.75
   3930,   170.659729,           5.
   3931,   170.659729,         6.25
   3932,   170.659729,          7.5
   3933,   170.659729,         8.75
   3934,   170.659729,          10.
   3935,   170.659729,        11.25
   3936,   170.659729,         12.5
   3937,   170.659729,        13.75
   3938,   170.659729,          15.
   3939,   170.659729,        16.25
   3940,   170.659729,         17.5
   3941,   170.659729,        18.75
   3942,   170.659729,          20.
   3943,   170.659729,        21.25
   3944,   170.659729,         22.5
   3945,   170.659729,        23.75
   3946,   170.659729,          25.
   3947,   170.659729,        26.25
   3948,   170.659729,         27.5
   3949,   170.659729,        28.75
   3950,   170.659729,          30.
   3951,   170.659729,        31.25
   3952,   170.659729,         32.5
   3953,   170.659729,        33.75
   3954,   170.659729,          35.
   3955,   170.659729,        36.25
   3956,   170.659729,         37.5
   3957,   170.659729,        38.75
   3958,   170.659729,          40.
   3959,   170.659729,        41.25
   3960,   170.659729,         42.5
   3961,   170.659729,        43.75
   3962,   170.659729,          45.
   3963,   170.659729,        46.25
   3964,   170.659729,         47.5
   3965,   170.659729,        48.75
   3966,   170.659729,          50.
   3967,   170.659729,        51.25
   3968,   170.659729,         52.5
   3969,   170.659729,        53.75
   3970,   170.659729,          55.
   3971,   170.659729,        56.25
   3972,   170.659729,         57.5
   3973,   170.659729,        58.75
   3974,   170.659729,          60.
   3975,   170.659729,        61.25
   3976,   170.659729,         62.5
   3977,   170.659729,        63.75
   3978,   170.659729,          65.
   3979,   170.659729,        66.25
   3980,   170.659729,         67.5
   3981,   170.659729,        68.75
   3982,   170.659729,          70.
   3983,   170.659729,        71.25
   3984,   170.659729,         72.5
   3985,   170.659729,        73.75
   3986,   170.659729,          75.
   3987,   170.659729,        76.25
   3988,   170.659729,         77.5
   3989,   170.659729,        78.75
   3990,   170.659729,          80.
   3991,   170.659729,        81.25
   3992,   170.659729,         82.5
   3993,   170.659729,        83.75
   3994,   170.659729,          85.
   3995,   170.659729,        86.25
   3996,   170.659729,         87.5
   3997,   170.659729,        88.75
   3998,   170.659729,          90.
   3999,   170.659729,        91.25
   4000,   170.659729,         92.5
   4001,   170.659729,        93.75
   4002,   170.659729,          95.
   4003,   170.659729,        96.25
   4004,   170.659729,         97.5
   4005,   170.659729,        98.75
   4006,   169.444443,         1.25
   4007,   169.444443,          2.5
   4008,   169.444443,         3.75
   4009,   169.444443,           5.
   4010,   169.444443,         6.25
   4011,   169.444443,          7.5
   4012,   169.444443,         8.75
   4013,   169.444443,          10.
   4014,   169.444443,        11.25
   4015,   169.444443,         12.5
   4016,   169.444443,        13.75
   4017,   169.444443,          15.
   4018,   169.444443,        16.25
   4019,   169.444443,         17.5
   4020,   169.444443,        18.75
   4021,   169.444443,          20.
   4022,   169.444443,        21.25
   4023,   169.444443,         22.5
   4024,   169.444443,        23.75
   4025,   169.444443,          25.
   4026,   169.444443,        26.25
   4027,   169.444443,         27.5
   4028,   169.444443,        28.75
   4029,   169.444443,          30.
   4030,   169.444443,        31.25
   4031,   169.444443,         32.5
   4032,   169.444443,        33.75
   4033,   169.444443,          35.
   4034,   169.444443,        36.25
   4035,   169.444443,         37.5
   4036,   169.444443,        38.75
   4037,   169.444443,          40.
   4038,   169.444443,        41.25
   4039,   169.444443,         42.5
   4040,   169.444443,        43.75
   4041,   169.444443,          45.
   4042,   169.444443,        46.25
   4043,   169.444443,         47.5
   4044,   169.444443,        48.75
   4045,   169.444443,          50.
   4046,   169.444443,        51.25
   4047,   169.444443,         52.5
   4048,   169.444443,        53.75
   4049,   169.444443,          55.
   4050,   169.444443,        56.25
   4051,   169.444443,         57.5
   4052,   169.444443,        58.75
   4053,   169.444443,          60.
   4054,   169.444443,        61.25
   4055,   169.444443,         62.5
   4056,   169.444443,        63.75
   4057,   169.444443,          65.
   4058,   169.444443,        66.25
   4059,   169.444443,         67.5
   4060,   169.444443,        68.75
   4061,   169.444443,          70.
   4062,   169.444443,        71.25
   4063,   169.444443,         72.5
   4064,   169.444443,        73.75
   4065,   169.444443,          75.
   4066,   169.444443,        76.25
   4067,   169.444443,         77.5
   4068,   169.444443,        78.75
   4069,   169.444443,          80.
   4070,   169.444443,        81.25
   4071,   169.444443,         82.5
   4072,   169.444443,        83.75
   4073,   169.444443,          85.
   4074,   169.444443,        86.25
   4075,   169.444443,         87.5
   4076,   169.444443,        88.75
   4077,   169.444443,          90.
   4078,   169.444443,        91.25
   4079,   169.444443,         92.5
   4080,   169.444443,        93.75
   4081,   169.444443,          95.
   4082,   169.444443,        96.25
   4083,   169.444443,         97.5
   4084,   169.444443,        98.75
   4085,   168.229172,         1.25
   4086,   168.229172,          2.5
   4087,   168.229172,         3.75
   4088,   168.229172,           5.
   4089,   168.229172,         6.25
   4090,   168.229172,          7.5
   4091,   168.229172,         8.75
   4092,   168.229172,          10.
   4093,   168.229172,        11.25
   4094,   168.229172,         12.5
   4095,   168.229172,        13.75
   4096,   168.229172,          15.
   4097,   168.229172,        16.25
   4098,   168.229172,         17.5
   4099,   168.229172,        18.75
   4100,   168.229172,          20.
   4101,   168.229172,        21.25
   4102,   168.229172,         22.5
   4103,   168.229172,        23.75
   4104,   168.229172,          25.
   4105,   168.229172,        26.25
   4106,   168.229172,         27.5
   4107,   168.229172,        28.75
   4108,   168.229172,          30.
   4109,   168.229172,        31.25
   4110,   168.229172,         32.5
   4111,   168.229172,        33.75
   4112,   168.229172,          35.
   4113,   168.229172,        36.25
   4114,   168.229172,         37.5
   4115,   168.229172,        38.75
   4116,   168.229172,          40.
   4117,   168.229172,        41.25
   4118,   168.229172,         42.5
   4119,   168.229172,        43.75
   4120,   168.229172,          45.
   4121,   168.229172,        46.25
   4122,   168.229172,         47.5
   4123,   168.229172,        48.75
   4124,   168.229172,          50.
   4125,   168.229172,        51.25
   4126,   168.229172,         52.5
   4127,   168.229172,        53.75
   4128,   168.229172,          55.
   4129,   168.229172,        56.25
   4130,   168.229172,         57.5
   4131,   168.229172,        58.75
   4132,   168.229172,          60.
   4133,   168.229172,        61.25
   4134,   168.229172,         62.5
   4135,   168.229172,        63.75
   4136,   168.229172,          65.
   4137,   168.229172,        66.25
   4138,   168.229172,         67.5
   4139,   168.229172,        68.75
   4140,   168.229172,          70.
   4141,   168.229172,        71.25
   4142,   168.229172,         72.5
   4143,   168.229172,        73.75
   4144,   168.229172,          75.
   4145,   168.229172,        76.25
   4146,   168.229172,         77.5
   4147,   168.229172,        78.75
   4148,   168.229172,          80.
   4149,   168.229172,        81.25
   4150,   168.229172,         82.5
   4151,   168.229172,        83.75
   4152,   168.229172,          85.
   4153,   168.229172,        86.25
   4154,   168.229172,         87.5
   4155,   168.229172,        88.75
   4156,   168.229172,          90.
   4157,   168.229172,        91.25
   4158,   168.229172,         92.5
   4159,   168.229172,        93.75
   4160,   168.229172,          95.
   4161,   168.229172,        96.25
   4162,   168.229172,         97.5
   4163,   168.229172,        98.75
   4164,   167.013885,         1.25
   4165,   167.013885,          2.5
   4166,   167.013885,         3.75
   4167,   167.013885,           5.
   4168,   167.013885,         6.25
   4169,   167.013885,          7.5
   4170,   167.013885,         8.75
   4171,   167.013885,          10.
   4172,   167.013885,        11.25
   4173,   167.013885,         12.5
   4174,   167.013885,        13.75
   4175,   167.013885,          15.
   4176,   167.013885,        16.25
   4177,   167.013885,         17.5
   4178,   167.013885,        18.75
   4179,   167.013885,          20.
   4180,   167.013885,        21.25
   4181,   167.013885,         22.5
   4182,   167.013885,        23.75
   4183,   167.013885,          25.
   4184,   167.013885,        26.25
   4185,   167.013885,         27.5
   4186,   167.013885,        28.75
   4187,   167.013885,          30.
   4188,   167.013885,        31.25
   4189,   167.013885,         32.5
   4190,   167.013885,        33.75
   4191,   167.013885,          35.
   4192,   167.013885,        36.25
   4193,   167.013885,         37.5
   4194,   167.013885,        38.75
   4195,   167.013885,          40.
   4196,   167.013885,        41.25
   4197,   167.013885,         42.5
   4198,   167.013885,        43.75
   4199,   167.013885,          45.
   4200,   167.013885,        46.25
   4201,   167.013885,         47.5
   4202,   167.013885,        48.75
   4203,   167.013885,          50.
   4204,   167.013885,        51.25
   4205,   167.013885,         52.5
   4206,   167.013885,        53.75
   4207,   167.013885,          55.
   4208,   167.013885,        56.25
   4209,   167.013885,         57.5
   4210,   167.013885,        58.75
   4211,   167.013885,          60.
   4212,   167.013885,        61.25
   4213,   167.013885,         62.5
   4214,   167.013885,        63.75
   4215,   167.013885,          65.
   4216,   167.013885,        66.25
   4217,   167.013885,         67.5
   4218,   167.013885,        68.75
   4219,   167.013885,          70.
   4220,   167.013885,        71.25
   4221,   167.013885,         72.5
   4222,   167.013885,        73.75
   4223,   167.013885,          75.
   4224,   167.013885,        76.25
   4225,   167.013885,         77.5
   4226,   167.013885,        78.75
   4227,   167.013885,          80.
   4228,   167.013885,        81.25
   4229,   167.013885,         82.5
   4230,   167.013885,        83.75
   4231,   167.013885,          85.
   4232,   167.013885,        86.25
   4233,   167.013885,         87.5
   4234,   167.013885,        88.75
   4235,   167.013885,          90.
   4236,   167.013885,        91.25
   4237,   167.013885,         92.5
   4238,   167.013885,        93.75
   4239,   167.013885,          95.
   4240,   167.013885,        96.25
   4241,   167.013885,         97.5
   4242,   167.013885,        98.75
   4243,   165.798615,         1.25
   4244,   165.798615,          2.5
   4245,   165.798615,         3.75
   4246,   165.798615,           5.
   4247,   165.798615,         6.25
   4248,   165.798615,          7.5
   4249,   165.798615,         8.75
   4250,   165.798615,          10.
   4251,   165.798615,        11.25
   4252,   165.798615,         12.5
   4253,   165.798615,        13.75
   4254,   165.798615,          15.
   4255,   165.798615,        16.25
   4256,   165.798615,         17.5
   4257,   165.798615,        18.75
   4258,   165.798615,          20.
   4259,   165.798615,        21.25
   4260,   165.798615,         22.5
   4261,   165.798615,        23.75
   4262,   165.798615,          25.
   4263,   165.798615,        26.25
   4264,   165.798615,         27.5
   4265,   165.798615,        28.75
   4266,   165.798615,          30.
   4267,   165.798615,        31.25
   4268,   165.798615,         32.5
   4269,   165.798615,        33.75
   4270,   165.798615,          35.
   4271,   165.798615,        36.25
   4272,   165.798615,         37.5
   4273,   165.798615,        38.75
   4274,   165.798615,          40.
   4275,   165.798615,        41.25
   4276,   165.798615,         42.5
   4277,   165.798615,        43.75
   4278,   165.798615,          45.
   4279,   165.798615,        46.25
   4280,   165.798615,         47.5
   4281,   165.798615,        48.75
   4282,   165.798615,          50.
   4283,   165.798615,        51.25
   4284,   165.798615,         52.5
   4285,   165.798615,        53.75
   4286,   165.798615,          55.
   4287,   165.798615,        56.25
   4288,   165.798615,         57.5
   4289,   165.798615,        58.75
   4290,   165.798615,          60.
   4291,   165.798615,        61.25
   4292,   165.798615,         62.5
   4293,   165.798615,        63.75
   4294,   165.798615,          65.
   4295,   165.798615,        66.25
   4296,   165.798615,         67.5
   4297,   165.798615,        68.75
   4298,   165.798615,          70.
   4299,   165.798615,        71.25
   4300,   165.798615,         72.5
   4301,   165.798615,        73.75
   4302,   165.798615,          75.
   4303,   165.798615,        76.25
   4304,   165.798615,         77.5
   4305,   165.798615,        78.75
   4306,   165.798615,          80.
   4307,   165.798615,        81.25
   4308,   165.798615,         82.5
   4309,   165.798615,        83.75
   4310,   165.798615,          85.
   4311,   165.798615,        86.25
   4312,   165.798615,         87.5
   4313,   165.798615,        88.75
   4314,   165.798615,          90.
   4315,   165.798615,        91.25
   4316,   165.798615,         92.5
   4317,   165.798615,        93.75
   4318,   165.798615,          95.
   4319,   165.798615,        96.25
   4320,   165.798615,         97.5
   4321,   165.798615,        98.75
   4322,   164.583328,         1.25
   4323,   164.583328,          2.5
   4324,   164.583328,         3.75
   4325,   164.583328,           5.
   4326,   164.583328,         6.25
   4327,   164.583328,          7.5
   4328,   164.583328,         8.75
   4329,   164.583328,          10.
   4330,   164.583328,        11.25
   4331,   164.583328,         12.5
   4332,   164.583328,        13.75
   4333,   164.583328,          15.
   4334,   164.583328,        16.25
   4335,   164.583328,         17.5
   4336,   164.583328,        18.75
   4337,   164.583328,          20.
   4338,   164.583328,        21.25
   4339,   164.583328,         22.5
   4340,   164.583328,        23.75
   4341,   164.583328,          25.
   4342,   164.583328,        26.25
   4343,   164.583328,         27.5
   4344,   164.583328,        28.75
   4345,   164.583328,          30.
   4346,   164.583328,        31.25
   4347,   164.583328,         32.5
   4348,   164.583328,        33.75
   4349,   164.583328,          35.
   4350,   164.583328,        36.25
   4351,   164.583328,         37.5
   4352,   164.583328,        38.75
   4353,   164.583328,          40.
   4354,   164.583328,        41.25
   4355,   164.583328,         42.5
   4356,   164.583328,        43.75
   4357,   164.583328,          45.
   4358,   164.583328,        46.25
   4359,   164.583328,         47.5
   4360,   164.583328,        48.75
   4361,   164.583328,          50.
   4362,   164.583328,        51.25
   4363,   164.583328,         52.5
   4364,   164.583328,        53.75
   4365,   164.583328,          55.
   4366,   164.583328,        56.25
   4367,   164.583328,         57.5
   4368,   164.583328,        58.75
   4369,   164.583328,          60.
   4370,   164.583328,        61.25
   4371,   164.583328,         62.5
   4372,   164.583328,        63.75
   4373,   164.583328,          65.
   4374,   164.583328,        66.25
   4375,   164.583328,         67.5
   4376,   164.583328,        68.75
   4377,   164.583328,          70.
   4378,   164.583328,        71.25
   4379,   164.583328,         72.5
   4380,   164.583328,        73.75
   4381,   164.583328,          75.
   4382,   164.583328,        76.25
   4383,   164.583328,         77.5
   4384,   164.583328,        78.75
   4385,   164.583328,          80.
   4386,   164.583328,        81.25
   4387,   164.583328,         82.5
   4388,   164.583328,        83.75
   4389,   164.583328,          85.
   4390,   164.583328,        86.25
   4391,   164.583328,         87.5
   4392,   164.583328,        88.75
   4393,   164.583328,          90.
   4394,   164.583328,        91.25
   4395,   164.583328,         92.5
   4396,   164.583328,        93.75
   4397,   164.583328,          95.
   4398,   164.583328,        96.25
   4399,   164.583328,         97.5
   4400,   164.583328,        98.75
   4401,   163.368057,         1.25
   4402,   163.368057,          2.5
   4403,   163.368057,         3.75
   4404,   163.368057,           5.
   4405,   163.368057,         6.25
   4406,   163.368057,          7.5
   4407,   163.368057,         8.75
   4408,   163.368057,          10.
   4409,   163.368057,        11.25
   4410,   163.368057,         12.5
   4411,   163.368057,        13.75
   4412,   163.368057,          15.
   4413,   163.368057,        16.25
   4414,   163.368057,         17.5
   4415,   163.368057,        18.75
   4416,   163.368057,          20.
   4417,   163.368057,        21.25
   4418,   163.368057,         22.5
   4419,   163.368057,        23.75
   4420,   163.368057,          25.
   4421,   163.368057,        26.25
   4422,   163.368057,         27.5
   4423,   163.368057,        28.75
   4424,   163.368057,          30.
   4425,   163.368057,        31.25
   4426,   163.368057,         32.5
   4427,   163.368057,        33.75
   4428,   163.368057,          35.
   4429,   163.368057,        36.25
   4430,   163.368057,         37.5
   4431,   163.368057,        38.75
   4432,   163.368057,          40.
   4433,   163.368057,        41.25
   4434,   163.368057,         42.5
   4435,   163.368057,        43.75
   4436,   163.368057,          45.
   4437,   163.368057,        46.25
   4438,   163.368057,         47.5
   4439,   163.368057,        48.75
   4440,   163.368057,          50.
   4441,   163.368057,        51.25
   4442,   163.368057,         52.5
   4443,   163.368057,        53.75
   4444,   163.368057,          55.
   4445,   163.368057,        56.25
   4446,   163.368057,         57.5
   4447,   163.368057,        58.75
   4448,   163.368057,          60.
   4449,   163.368057,        61.25
   4450,   163.368057,         62.5
   4451,   163.368057,        63.75
   4452,   163.368057,          65.
   4453,   163.368057,        66.25
   4454,   163.368057,         67.5
   4455,   163.368057,        68.75
   4456,   163.368057,          70.
   4457,   163.368057,        71.25
   4458,   163.368057,         72.5
   4459,   163.368057,        73.75
   4460,   163.368057,          75.
   4461,   163.368057,        76.25
   4462,   163.368057,         77.5
   4463,   163.368057,        78.75
   4464,   163.368057,          80.
   4465,   163.368057,        81.25
   4466,   163.368057,         82.5
   4467,   163.368057,        83.75
   4468,   163.368057,          85.
   4469,   163.368057,        86.25
   4470,   163.368057,         87.5
   4471,   163.368057,        88.75
   4472,   163.368057,          90.
   4473,   163.368057,        91.25
   4474,   163.368057,         92.5
   4475,   163.368057,        93.75
   4476,   163.368057,          95.
   4477,   163.368057,        96.25
   4478,   163.368057,         97.5
   4479,   163.368057,        98.75
   4480,   162.152771,         1.25
   4481,   162.152771,          2.5
   4482,   162.152771,         3.75
   4483,   162.152771,           5.
   4484,   162.152771,         6.25
   4485,   162.152771,          7.5
   4486,   162.152771,         8.75
   4487,   162.152771,          10.
   4488,   162.152771,        11.25
   4489,   162.152771,         12.5
   4490,   162.152771,        13.75
   4491,   162.152771,          15.
   4492,   162.152771,        16.25
   4493,   162.152771,         17.5
   4494,   162.152771,        18.75
   4495,   162.152771,          20.
   4496,   162.152771,        21.25
   4497,   162.152771,         22.5
   4498,   162.152771,        23.75
   4499,   162.152771,          25.
   4500,   162.152771,        26.25
   4501,   162.152771,         27.5
   4502,   162.152771,        28.75
   4503,   162.152771,          30.
   4504,   162.152771,        31.25
   4505,   162.152771,         32.5
   4506,   162.152771,        33.75
   4507,   162.152771,          35.
   4508,   162.152771,        36.25
   4509,   162.152771,         37.5
   4510,   162.152771,        38.75
   4511,   162.152771,          40.
   4512,   162.152771,        41.25
   4513,   162.152771,         42.5
   4514,   162.152771,        43.75
   4515,   162.152771,          45.
   4516,   162.152771,        46.25
   4517,   162.152771,         47.5
   4518,   162.152771,        48.75
   4519,   162.152771,          50.
   4520,   162.152771,        51.25
   4521,   162.152771,         52.5
   4522,   162.152771,        53.75
   4523,   162.152771,          55.
   4524,   162.152771,        56.25
   4525,   162.152771,         57.5
   4526,   162.152771,        58.75
   4527,   162.152771,          60.
   4528,   162.152771,        61.25
   4529,   162.152771,         62.5
   4530,   162.152771,        63.75
   4531,   162.152771,          65.
   4532,   162.152771,        66.25
   4533,   162.152771,         67.5
   4534,   162.152771,        68.75
   4535,   162.152771,          70.
   4536,   162.152771,        71.25
   4537,   162.152771,         72.5
   4538,   162.152771,        73.75
   4539,   162.152771,          75.
   4540,   162.152771,        76.25
   4541,   162.152771,         77.5
   4542,   162.152771,        78.75
   4543,   162.152771,          80.
   4544,   162.152771,        81.25
   4545,   162.152771,         82.5
   4546,   162.152771,        83.75
   4547,   162.152771,          85.
   4548,   162.152771,        86.25
   4549,   162.152771,         87.5
   4550,   162.152771,        88.75
   4551,   162.152771,          90.
   4552,   162.152771,        91.25
   4553,   162.152771,         92.5
   4554,   162.152771,        93.75
   4555,   162.152771,          95.
   4556,   162.152771,        96.25
   4557,   162.152771,         97.5
   4558,   162.152771,        98.75
   4559,     160.9375,         1.25
   4560,     160.9375,          2.5
   4561,     160.9375,         3.75
   4562,     160.9375,           5.
   4563,     160.9375,         6.25
   4564,     160.9375,          7.5
   4565,     160.9375,         8.75
   4566,     160.9375,          10.
   4567,     160.9375,        11.25
   4568,     160.9375,         12.5
   4569,     160.9375,        13.75
   4570,     160.9375,          15.
   4571,     160.9375,        16.25
   4572,     160.9375,         17.5
   4573,     160.9375,        18.75
   4574,     160.9375,          20.
   4575,     160.9375,        21.25
   4576,     160.9375,         22.5
   4577,     160.9375,        23.75
   4578,     160.9375,          25.
   4579,     160.9375,        26.25
   4580,     160.9375,         27.5
   4581,     160.9375,        28.75
   4582,     160.9375,          30.
   4583,     160.9375,        31.25
   4584,     160.9375,         32.5
   4585,     160.9375,        33.75
   4586,     160.9375,          35.
   4587,     160.9375,        36.25
   4588,     160.9375,         37.5
   4589,     160.9375,        38.75
   4590,     160.9375,          40.
   4591,     160.9375,        41.25
   4592,     160.9375,         42.5
   4593,     160.9375,        43.75
   4594,     160.9375,          45.
   4595,     160.9375,        46.25
   4596,     160.9375,         47.5
   4597,     160.9375,        48.75
   4598,     160.9375,          50.
   4599,     160.9375,        51.25
   4600,     160.9375,         52.5
   4601,     160.9375,        53.75
   4602,     160.9375,          55.
   4603,     160.9375,        56.25
   4604,     160.9375,         57.5
   4605,     160.9375,        58.75
   4606,     160.9375,          60.
   4607,     160.9375,        61.25
   4608,     160.9375,         62.5
   4609,     160.9375,        63.75
   4610,     160.9375,          65.
   4611,     160.9375,        66.25
   4612,     160.9375,         67.5
   4613,     160.9375,        68.75
   4614,     160.9375,          70.
   4615,     160.9375,        71.25
   4616,     160.9375,         72.5
   4617,     160.9375,        73.75
   4618,     160.9375,          75.
   4619,     160.9375,        76.25
   4620,     160.9375,         77.5
   4621,     160.9375,        78.75
   4622,     160.9375,          80.
   4623,     160.9375,        81.25
   4624,     160.9375,         82.5
   4625,     160.9375,        83.75
   4626,     160.9375,          85.
   4627,     160.9375,        86.25
   4628,     160.9375,         87.5
   4629,     160.9375,        88.75
   4630,     160.9375,          90.
   4631,     160.9375,        91.25
   4632,     160.9375,         92.5
   4633,     160.9375,        93.75
   4634,     160.9375,          95.
   4635,     160.9375,        96.25
   4636,     160.9375,         97.5
   4637,     160.9375,        98.75
   4638,   159.722229,         1.25
   4639,   159.722229,          2.5
   4640,   159.722229,         3.75
   4641,   159.722229,           5.
   4642,   159.722229,         6.25
   4643,   159.722229,          7.5
   4644,   159.722229,         8.75
   4645,   159.722229,          10.
   4646,   159.722229,        11.25
   4647,   159.722229,         12.5
   4648,   159.722229,        13.75
   4649,   159.722229,          15.
   4650,   159.722229,        16.25
   4651,   159.722229,         17.5
   4652,   159.722229,        18.75
   4653,   159.722229,          20.
   4654,   159.722229,        21.25
   4655,   159.722229,         22.5
   4656,   159.722229,        23.75
   4657,   159.722229,          25.
   4658,   159.722229,        26.25
   4659,   159.722229,         27.5
   4660,   159.722229,        28.75
   4661,   159.722229,          30.
   4662,   159.722229,        31.25
   4663,   159.722229,         32.5
   4664,   159.722229,        33.75
   4665,   159.722229,          35.
   4666,   159.722229,        36.25
   4667,   159.722229,         37.5
   4668,   159.722229,        38.75
   4669,   159.722229,          40.
   4670,   159.722229,        41.25
   4671,   159.722229,         42.5
   4672,   159.722229,        43.75
   4673,   159.722229,          45.
   4674,   159.722229,        46.25
   4675,   159.722229,         47.5
   4676,   159.722229,        48.75
   4677,   159.722229,          50.
   4678,   159.722229,        51.25
   4679,   159.722229,         52.5
   4680,   159.722229,        53.75
   4681,   159.722229,          55.
   4682,   159.722229,        56.25
   4683,   159.722229,         57.5
   4684,   159.722229,        58.75
   4685,   159.722229,          60.
   4686,   159.722229,        61.25
   4687,   159.722229,         62.5
   4688,   159.722229,        63.75
   4689,   159.722229,          65.
   4690,   159.722229,        66.25
   4691,   159.722229,         67.5
   4692,   159.722229,        68.75
   4693,   159.722229,          70.
   4694,   159.722229,        71.25
   4695,   159.722229,         72.5
   4696,   159.722229,        73.75
   4697,   159.722229,          75.
   4698,   159.722229,        76.25
   4699,   159.722229,         77.5
   4700,   159.722229,        78.75
   4701,   159.722229,          80.
   4702,   159.722229,        81.25
   4703,   159.722229,         82.5
   4704,   159.722229,        83.75
   4705,   159.722229,          85.
   4706,   159.722229,        86.25
   4707,   159.722229,         87.5
   4708,   159.722229,        88.75
   4709,   159.722229,          90.
   4710,   159.722229,        91.25
   4711,   159.722229,         92.5
   4712,   159.722229,        93.75
   4713,   159.722229,          95.
   4714,   159.722229,        96.25
   4715,   159.722229,         97.5
   4716,   159.722229,        98.75
   4717,   158.506943,         1.25
   4718,   158.506943,          2.5
   4719,   158.506943,         3.75
   4720,   158.506943,           5.
   4721,   158.506943,         6.25
   4722,   158.506943,          7.5
   4723,   158.506943,         8.75
   4724,   158.506943,          10.
   4725,   158.506943,        11.25
   4726,   158.506943,         12.5
   4727,   158.506943,        13.75
   4728,   158.506943,          15.
   4729,   158.506943,        16.25
   4730,   158.506943,         17.5
   4731,   158.506943,        18.75
   4732,   158.506943,          20.
   4733,   158.506943,        21.25
   4734,   158.506943,         22.5
   4735,   158.506943,        23.75
   4736,   158.506943,          25.
   4737,   158.506943,        26.25
   4738,   158.506943,         27.5
   4739,   158.506943,        28.75
   4740,   158.506943,          30.
   4741,   158.506943,        31.25
   4742,   158.506943,         32.5
   4743,   158.506943,        33.75
   4744,   158.506943,          35.
   4745,   158.506943,        36.25
   4746,   158.506943,         37.5
   4747,   158.506943,        38.75
   4748,   158.506943,          40.
   4749,   158.506943,        41.25
   4750,   158.506943,         42.5
   4751,   158.506943,        43.75
   4752,   158.506943,          45.
   4753,   158.506943,        46.25
   4754,   158.506943,         47.5
   4755,   158.506943,        48.75
   4756,   158.506943,          50.
   4757,   158.506943,        51.25
   4758,   158.506943,         52.5
   4759,   158.506943,        53.75
   4760,   158.506943,          55.
   4761,   158.506943,        56.25
   4762,   158.506943,         57.5
   4763,   158.506943,        58.75
   4764,   158.506943,          60.
   4765,   158.506943,        61.25
   4766,   158.506943,         62.5
   4767,   158.506943,        63.75
   4768,   158.506943,          65.
   4769,   158.506943,        66.25
   4770,   158.506943,         67.5
   4771,   158.506943,        68.75
   4772,   158.506943,          70.
   4773,   158.506943,        71.25
   4774,   158.506943,         72.5
   4775,   158.506943,        73.75
   4776,   158.506943,          75.
   4777,   158.506943,        76.25
   4778,   158.506943,         77.5
   4779,   158.506943,        78.75
   4780,   158.506943,          80.
   4781,   158.506943,        81.25
   4782,   158.506943,         82.5
   4783,   158.506943,        83.75
   4784,   158.506943,          85.
   4785,   158.506943,        86.25
   4786,   158.506943,         87.5
   4787,   158.506943,        88.75
   4788,   158.506943,          90.
   4789,   158.506943,        91.25
   4790,   158.506943,         92.5
   4791,   158.506943,        93.75
   4792,   158.506943,          95.
   4793,   158.506943,        96.25
   4794,   158.506943,         97.5
   4795,   158.506943,        98.75
   4796,   157.291672,         1.25
   4797,   157.291672,          2.5
   4798,   157.291672,         3.75
   4799,   157.291672,           5.
   4800,   157.291672,         6.25
   4801,   157.291672,          7.5
   4802,   157.291672,         8.75
   4803,   157.291672,          10.
   4804,   157.291672,        11.25
   4805,   157.291672,         12.5
   4806,   157.291672,        13.75
   4807,   157.291672,          15.
   4808,   157.291672,        16.25
   4809,   157.291672,         17.5
   4810,   157.291672,        18.75
   4811,   157.291672,          20.
   4812,   157.291672,        21.25
   4813,   157.291672,         22.5
   4814,   157.291672,        23.75
   4815,   157.291672,          25.
   4816,   157.291672,        26.25
   4817,   157.291672,         27.5
   4818,   157.291672,        28.75
   4819,   157.291672,          30.
   4820,   157.291672,        31.25
   4821,   157.291672,         32.5
   4822,   157.291672,        33.75
   4823,   157.291672,          35.
   4824,   157.291672,        36.25
   4825,   157.291672,         37.5
   4826,   157.291672,        38.75
   4827,   157.291672,          40.
   4828,   157.291672,        41.25
   4829,   157.291672,         42.5
   4830,   157.291672,        43.75
   4831,   157.291672,          45.
   4832,   157.291672,        46.25
   4833,   157.291672,         47.5
   4834,   157.291672,        48.75
   4835,   157.291672,          50.
   4836,   157.291672,        51.25
   4837,   157.291672,         52.5
   4838,   157.291672,        53.75
   4839,   157.291672,          55.
   4840,   157.291672,        56.25
   4841,   157.291672,         57.5
   4842,   157.291672,        58.75
   4843,   157.291672,          60.
   4844,   157.291672,        61.25
   4845,   157.291672,         62.5
   4846,   157.291672,        63.75
   4847,   157.291672,          65.
   4848,   157.291672,        66.25
   4849,   157.291672,         67.5
   4850,   157.291672,        68.75
   4851,   157.291672,          70.
   4852,   157.291672,        71.25
   4853,   157.291672,         72.5
   4854,   157.291672,        73.75
   4855,   157.291672,          75.
   4856,   157.291672,        76.25
   4857,   157.291672,         77.5
   4858,   157.291672,        78.75
   4859,   157.291672,          80.
   4860,   157.291672,        81.25
   4861,   157.291672,         82.5
   4862,   157.291672,        83.75
   4863,   157.291672,          85.
   4864,   157.291672,        86.25
   4865,   157.291672,         87.5
   4866,   157.291672,        88.75
   4867,   157.291672,          90.
   4868,   157.291672,        91.25
   4869,   157.291672,         92.5
   4870,   157.291672,        93.75
   4871,   157.291672,          95.
   4872,   157.291672,        96.25
   4873,   157.291672,         97.5
   4874,   157.291672,        98.75
   4875,   156.076385,         1.25
   4876,   156.076385,          2.5
   4877,   156.076385,         3.75
   4878,   156.076385,           5.
   4879,   156.076385,         6.25
   4880,   156.076385,          7.5
   4881,   156.076385,         8.75
   4882,   156.076385,          10.
   4883,   156.076385,        11.25
   4884,   156.076385,         12.5
   4885,   156.076385,        13.75
   4886,   156.076385,          15.
   4887,   156.076385,        16.25
   4888,   156.076385,         17.5
   4889,   156.076385,        18.75
   4890,   156.076385,          20.
   4891,   156.076385,        21.25
   4892,   156.076385,         22.5
   4893,   156.076385,        23.75
   4894,   156.076385,          25.
   4895,   156.076385,        26.25
   4896,   156.076385,         27.5
   4897,   156.076385,        28.75
   4898,   156.076385,          30.
   4899,   156.076385,        31.25
   4900,   156.076385,         32.5
   4901,   156.076385,        33.75
   4902,   156.076385,          35.
   4903,   156.076385,        36.25
   4904,   156.076385,         37.5
   4905,   156.076385,        38.75
   4906,   156.076385,          40.
   4907,   156.076385,        41.25
   4908,   156.076385,         42.5
   4909,   156.076385,        43.75
   4910,   156.076385,          45.
   4911,   156.076385,        46.25
   4912,   156.076385,         47.5
   4913,   156.076385,        48.75
   4914,   156.076385,          50.
   4915,   156.076385,        51.25
   4916,   156.076385,         52.5
   4917,   156.076385,        53.75
   4918,   156.076385,          55.
   4919,   156.076385,        56.25
   4920,   156.076385,         57.5
   4921,   156.076385,        58.75
   4922,   156.076385,          60.
   4923,   156.076385,        61.25
   4924,   156.076385,         62.5
   4925,   156.076385,        63.75
   4926,   156.076385,          65.
   4927,   156.076385,        66.25
   4928,   156.076385,         67.5
   4929,   156.076385,        68.75
   4930,   156.076385,          70.
   4931,   156.076385,        71.25
   4932,   156.076385,         72.5
   4933,   156.076385,        73.75
   4934,   156.076385,          75.
   4935,   156.076385,        76.25
   4936,   156.076385,         77.5
   4937,   156.076385,        78.75
   4938,   156.076385,          80.
   4939,   156.076385,        81.25
   4940,   156.076385,         82.5
   4941,   156.076385,        83.75
   4942,   156.076385,          85.
   4943,   156.076385,        86.25
   4944,   156.076385,         87.5
   4945,   156.076385,        88.75
   4946,   156.076385,          90.
   4947,   156.076385,        91.25
   4948,   156.076385,         92.5
   4949,   156.076385,        93.75
   4950,   156.076385,          95.
   4951,   156.076385,        96.25
   4952,   156.076385,         97.5
   4953,   156.076385,        98.75
   4954,   154.861115,         1.25
   4955,   154.861115,          2.5
   4956,   154.861115,         3.75
   4957,   154.861115,           5.
   4958,   154.861115,         6.25
   4959,   154.861115,          7.5
   4960,   154.861115,         8.75
   4961,   154.861115,          10.
   4962,   154.861115,        11.25
   4963,   154.861115,         12.5
   4964,   154.861115,        13.75
   4965,   154.861115,          15.
   4966,   154.861115,        16.25
   4967,   154.861115,         17.5
   4968,   154.861115,        18.75
   4969,   154.861115,          20.
   4970,   154.861115,        21.25
   4971,   154.861115,         22.5
   4972,   154.861115,        23.75
   4973,   154.861115,          25.
   4974,   154.861115,        26.25
   4975,   154.861115,         27.5
   4976,   154.861115,        28.75
   4977,   154.861115,          30.
   4978,   154.861115,        31.25
   4979,   154.861115,         32.5
   4980,   154.861115,        33.75
   4981,   154.861115,          35.
   4982,   154.861115,        36.25
   4983,   154.861115,         37.5
   4984,   154.861115,        38.75
   4985,   154.861115,          40.
   4986,   154.861115,        41.25
   4987,   154.861115,         42.5
   4988,   154.861115,        43.75
   4989,   154.861115,          45.
   4990,   154.861115,        46.25
   4991,   154.861115,         47.5
   4992,   154.861115,        48.75
   4993,   154.861115,          50.
   4994,   154.861115,        51.25
   4995,   154.861115,         52.5
   4996,   154.861115,        53.75
   4997,   154.861115,          55.
   4998,   154.861115,        56.25
   4999,   154.861115,         57.5
   5000,   154.861115,        58.75
   5001,   154.861115,          60.
   5002,   154.861115,        61.25
   5003,   154.861115,         62.5
   5004,   154.861115,        63.75
   5005,   154.861115,          65.
   5006,   154.861115,        66.25
   5007,   154.861115,         67.5
   5008,   154.861115,        68.75
   5009,   154.861115,          70.
   5010,   154.861115,        71.25
   5011,   154.861115,         72.5
   5012,   154.861115,        73.75
   5013,   154.861115,          75.
   5014,   154.861115,        76.25
   5015,   154.861115,         77.5
   5016,   154.861115,        78.75
   5017,   154.861115,          80.
   5018,   154.861115,        81.25
   5019,   154.861115,         82.5
   5020,   154.861115,        83.75
   5021,   154.861115,          85.
   5022,   154.861115,        86.25
   5023,   154.861115,         87.5
   5024,   154.861115,        88.75
   5025,   154.861115,          90.
   5026,   154.861115,        91.25
   5027,   154.861115,         92.5
   5028,   154.861115,        93.75
   5029,   154.861115,          95.
   5030,   154.861115,        96.25
   5031,   154.861115,         97.5
   5032,   154.861115,        98.75
   5033,   153.645828,         1.25
   5034,   153.645828,          2.5
   5035,   153.645828,         3.75
   5036,   153.645828,           5.
   5037,   153.645828,         6.25
   5038,   153.645828,          7.5
   5039,   153.645828,         8.75
   5040,   153.645828,          10.
   5041,   153.645828,        11.25
   5042,   153.645828,         12.5
   5043,   153.645828,        13.75
   5044,   153.645828,          15.
   5045,   153.645828,        16.25
   5046,   153.645828,         17.5
   5047,   153.645828,        18.75
   5048,   153.645828,          20.
   5049,   153.645828,        21.25
   5050,   153.645828,         22.5
   5051,   153.645828,        23.75
   5052,   153.645828,          25.
   5053,   153.645828,        26.25
   5054,   153.645828,         27.5
   5055,   153.645828,        28.75
   5056,   153.645828,          30.
   5057,   153.645828,        31.25
   5058,   153.645828,         32.5
   5059,   153.645828,        33.75
   5060,   153.645828,          35.
   5061,   153.645828,        36.25
   5062,   153.645828,         37.5
   5063,   153.645828,        38.75
   5064,   153.645828,          40.
   5065,   153.645828,        41.25
   5066,   153.645828,         42.5
   5067,   153.645828,        43.75
   5068,   153.645828,          45.
   5069,   153.645828,        46.25
   5070,   153.645828,         47.5
   5071,   153.645828,        48.75
   5072,   153.645828,          50.
   5073,   153.645828,        51.25
   5074,   153.645828,         52.5
   5075,   153.645828,        53.75
   5076,   153.645828,          55.
   5077,   153.645828,        56.25
   5078,   153.645828,         57.5
   5079,   153.645828,        58.75
   5080,   153.645828,          60.
   5081,   153.645828,        61.25
   5082,   153.645828,         62.5
   5083,   153.645828,        63.75
   5084,   153.645828,          65.
   5085,   153.645828,        66.25
   5086,   153.645828,         67.5
   5087,   153.645828,        68.75
   5088,   153.645828,          70.
   5089,   153.645828,        71.25
   5090,   153.645828,         72.5
   5091,   153.645828,        73.75
   5092,   153.645828,          75.
   5093,   153.645828,        76.25
   5094,   153.645828,         77.5
   5095,   153.645828,        78.75
   5096,   153.645828,          80.
   5097,   153.645828,        81.25
   5098,   153.645828,         82.5
   5099,   153.645828,        83.75
   5100,   153.645828,          85.
   5101,   153.645828,        86.25
   5102,   153.645828,         87.5
   5103,   153.645828,        88.75
   5104,   153.645828,          90.
   5105,   153.645828,        91.25
   5106,   153.645828,         92.5
   5107,   153.645828,        93.75
   5108,   153.645828,          95.
   5109,   153.645828,        96.25
   5110,   153.645828,         97.5
   5111,   153.645828,        98.75
   5112,   152.430557,         1.25
   5113,   152.430557,          2.5
   5114,   152.430557,         3.75
   5115,   152.430557,           5.
   5116,   152.430557,         6.25
   5117,   152.430557,          7.5
   5118,   152.430557,         8.75
   5119,   152.430557,          10.
   5120,   152.430557,        11.25
   5121,   152.430557,         12.5
   5122,   152.430557,        13.75
   5123,   152.430557,          15.
   5124,   152.430557,        16.25
   5125,   152.430557,         17.5
   5126,   152.430557,        18.75
   5127,   152.430557,          20.
   5128,   152.430557,        21.25
   5129,   152.430557,         22.5
   5130,   152.430557,        23.75
   5131,   152.430557,          25.
   5132,   152.430557,        26.25
   5133,   152.430557,         27.5
   5134,   152.430557,        28.75
   5135,   152.430557,          30.
   5136,   152.430557,        31.25
   5137,   152.430557,         32.5
   5138,   152.430557,        33.75
   5139,   152.430557,          35.
   5140,   152.430557,        36.25
   5141,   152.430557,         37.5
   5142,   152.430557,        38.75
   5143,   152.430557,          40.
   5144,   152.430557,        41.25
   5145,   152.430557,         42.5
   5146,   152.430557,        43.75
   5147,   152.430557,          45.
   5148,   152.430557,        46.25
   5149,   152.430557,         47.5
   5150,   152.430557,        48.75
   5151,   152.430557,          50.
   5152,   152.430557,        51.25
   5153,   152.430557,         52.5
   5154,   152.430557,        53.75
   5155,   152.430557,          55.
   5156,   152.430557,        56.25
   5157,   152.430557,         57.5
   5158,   152.430557,        58.75
   5159,   152.430557,          60.
   5160,   152.430557,        61.25
   5161,   152.430557,         62.5
   5162,   152.430557,        63.75
   5163,   152.430557,          65.
   5164,   152.430557,        66.25
   5165,   152.430557,         67.5
   5166,   152.430557,        68.75
   5167,   152.430557,          70.
   5168,   152.430557,        71.25
   5169,   152.430557,         72.5
   5170,   152.430557,        73.75
   5171,   152.430557,          75.
   5172,   152.430557,        76.25
   5173,   152.430557,         77.5
   5174,   152.430557,        78.75
   5175,   152.430557,          80.
   5176,   152.430557,        81.25
   5177,   152.430557,         82.5
   5178,   152.430557,        83.75
   5179,   152.430557,          85.
   5180,   152.430557,        86.25
   5181,   152.430557,         87.5
   5182,   152.430557,        88.75
   5183,   152.430557,          90.
   5184,   152.430557,        91.25
   5185,   152.430557,         92.5
   5186,   152.430557,        93.75
   5187,   152.430557,          95.
   5188,   152.430557,        96.25
   5189,   152.430557,         97.5
   5190,   152.430557,        98.75
   5191,   151.215271,         1.25
   5192,   151.215271,          2.5
   5193,   151.215271,         3.75
   5194,   151.215271,           5.
   5195,   151.215271,         6.25
   5196,   151.215271,          7.5
   5197,   151.215271,         8.75
   5198,   151.215271,          10.
   5199,   151.215271,        11.25
   5200,   151.215271,         12.5
   5201,   151.215271,        13.75
   5202,   151.215271,          15.
   5203,   151.215271,        16.25
   5204,   151.215271,         17.5
   5205,   151.215271,        18.75
   5206,   151.215271,          20.
   5207,   151.215271,        21.25
   5208,   151.215271,         22.5
   5209,   151.215271,        23.75
   5210,   151.215271,          25.
   5211,   151.215271,        26.25
   5212,   151.215271,         27.5
   5213,   151.215271,        28.75
   5214,   151.215271,          30.
   5215,   151.215271,        31.25
   5216,   151.215271,         32.5
   5217,   151.215271,        33.75
   5218,   151.215271,          35.
   5219,   151.215271,        36.25
   5220,   151.215271,         37.5
   5221,   151.215271,        38.75
   5222,   151.215271,          40.
   5223,   151.215271,        41.25
   5224,   151.215271,         42.5
   5225,   151.215271,        43.75
   5226,   151.215271,          45.
   5227,   151.215271,        46.25
   5228,   151.215271,         47.5
   5229,   151.215271,        48.75
   5230,   151.215271,          50.
   5231,   151.215271,        51.25
   5232,   151.215271,         52.5
   5233,   151.215271,        53.75
   5234,   151.215271,          55.
   5235,   151.215271,        56.25
   5236,   151.215271,         57.5
   5237,   151.215271,        58.75
   5238,   151.215271,          60.
   5239,   151.215271,        61.25
   5240,   151.215271,         62.5
   5241,   151.215271,        63.75
   5242,   151.215271,          65.
   5243,   151.215271,        66.25
   5244,   151.215271,         67.5
   5245,   151.215271,        68.75
   5246,   151.215271,          70.
   5247,   151.215271,        71.25
   5248,   151.215271,         72.5
   5249,   151.215271,        73.75
   5250,   151.215271,          75.
   5251,   151.215271,        76.25
   5252,   151.215271,         77.5
   5253,   151.215271,        78.75
   5254,   151.215271,          80.
   5255,   151.215271,        81.25
   5256,   151.215271,         82.5
   5257,   151.215271,        83.75
   5258,   151.215271,          85.
   5259,   151.215271,        86.25
   5260,   151.215271,         87.5
   5261,   151.215271,        88.75
   5262,   151.215271,          90.
   5263,   151.215271,        91.25
   5264,   151.215271,         92.5
   5265,   151.215271,        93.75
   5266,   151.215271,          95.
   5267,   151.215271,        96.25
   5268,   151.215271,         97.5
   5269,   151.215271,        98.75
   5270,        56.25,        98.75
   5271,        56.25,         97.5
   5272,        56.25,        96.25
   5273,        56.25,          95.
   5274,        56.25,        93.75
   5275,        56.25,         92.5
   5276,        56.25,        91.25
   5277,        56.25,          90.
   5278,        56.25,        88.75
   5279,        56.25,         87.5
   5280,        56.25,        86.25
   5281,        56.25,          85.
   5282,        56.25,        83.75
   5283,        56.25,         82.5
   5284,        56.25,        81.25
   5285,        56.25,          80.
   5286,        56.25,        78.75
   5287,        56.25,         77.5
   5288,        56.25,        76.25
   5289,        56.25,          75.
   5290,        56.25,        73.75
   5291,        56.25,         72.5
   5292,        56.25,        71.25
   5293,        56.25,          70.
   5294,        56.25,        68.75
   5295,        56.25,         67.5
   5296,        56.25,        66.25
   5297,        56.25,          65.
   5298,        56.25,        63.75
   5299,        56.25,         62.5
   5300,        56.25,        61.25
   5301,        56.25,          60.
   5302,        56.25,        58.75
   5303,        56.25,         57.5
   5304,        56.25,        56.25
   5305,        56.25,          55.
   5306,        56.25,        53.75
   5307,        56.25,         52.5
   5308,        56.25,        51.25
   5309,        56.25,          50.
   5310,        56.25,        48.75
   5311,        56.25,         47.5
   5312,        56.25,        46.25
   5313,        56.25,          45.
   5314,        56.25,        43.75
   5315,        56.25,         42.5
   5316,        56.25,        41.25
   5317,        56.25,          40.
   5318,        56.25,        38.75
   5319,        56.25,         37.5
   5320,        56.25,        36.25
   5321,        56.25,          35.
   5322,        56.25,        33.75
   5323,        56.25,         32.5
   5324,        56.25,        31.25
   5325,        56.25,          30.
   5326,        56.25,        28.75
   5327,        56.25,         27.5
   5328,        56.25,        26.25
   5329,        56.25,          25.
   5330,        56.25,        23.75
   5331,        56.25,         22.5
   5332,        56.25,        21.25
   5333,        56.25,          20.
   5334,        56.25,        18.75
   5335,        56.25,         17.5
   5336,        56.25,        16.25
   5337,        56.25,          15.
   5338,        56.25,        13.75
   5339,        56.25,         12.5
   5340,        56.25,        11.25
   5341,        56.25,          10.
   5342,        56.25,         8.75
   5343,        56.25,          7.5
   5344,        56.25,         6.25
   5345,        56.25,           5.
   5346,        56.25,         3.75
   5347,        56.25,          2.5
   5348,        56.25,         1.25
   5349,         62.5,        98.75
   5350,         62.5,         97.5
   5351,         62.5,        96.25
   5352,         62.5,          95.
   5353,         62.5,        93.75
   5354,         62.5,         92.5
   5355,         62.5,        91.25
   5356,         62.5,          90.
   5357,         62.5,        88.75
   5358,         62.5,         87.5
   5359,         62.5,        86.25
   5360,         62.5,          85.
   5361,         62.5,        83.75
   5362,         62.5,         82.5
   5363,         62.5,        81.25
   5364,         62.5,          80.
   5365,         62.5,        78.75
   5366,         62.5,         77.5
   5367,         62.5,        76.25
   5368,         62.5,          75.
   5369,         62.5,        73.75
   5370,         62.5,         72.5
   5371,         62.5,        71.25
   5372,         62.5,          70.
   5373,         62.5,        68.75
   5374,         62.5,         67.5
   5375,         62.5,        66.25
   5376,         62.5,          65.
   5377,         62.5,        63.75
   5378,         62.5,         62.5
   5379,         62.5,        61.25
   5380,         62.5,          60.
   5381,         62.5,        58.75
   5382,         62.5,         57.5
   5383,         62.5,        56.25
   5384,         62.5,          55.
   5385,         62.5,        53.75
   5386,         62.5,         52.5
   5387,         62.5,        51.25
   5388,         62.5,          50.
   5389,         62.5,        48.75
   5390,         62.5,         47.5
   5391,         62.5,        46.25
   5392,         62.5,          45.
   5393,         62.5,        43.75
   5394,         62.5,         42.5
   5395,         62.5,        41.25
   5396,         62.5,          40.
   5397,         62.5,        38.75
   5398,         62.5,         37.5
   5399,         62.5,        36.25
   5400,         62.5,          35.
   5401,         62.5,        33.75
   5402,         62.5,         32.5
   5403,         62.5,        31.25
   5404,         62.5,          30.
   5405,         62.5,        28.75
   5406,         62.5,         27.5
   5407,         62.5,        26.25
   5408,         62.5,          25.
   5409,         62.5,        23.75
   5410,         62.5,         22.5
   5411,         62.5,        21.25
   5412,         62.5,          20.
   5413,         62.5,        18.75
   5414,         62.5,         17.5
   5415,         62.5,        16.25
   5416,         62.5,          15.
   5417,         62.5,        13.75
   5418,         62.5,         12.5
   5419,         62.5,        11.25
   5420,         62.5,          10.
   5421,         62.5,         8.75
   5422,         62.5,          7.5
   5423,         62.5,         6.25
   5424,         62.5,           5.
   5425,         62.5,         3.75
   5426,         62.5,          2.5
   5427,         62.5,         1.25
   5428,        68.75,        98.75
   5429,        68.75,         97.5
   5430,        68.75,        96.25
   5431,        68.75,          95.
   5432,        68.75,        93.75
   5433,        68.75,         92.5
   5434,        68.75,        91.25
   5435,        68.75,          90.
   5436,        68.75,        88.75
   5437,        68.75,         87.5
   5438,        68.75,        86.25
   5439,        68.75,          85.
   5440,        68.75,        83.75
   5441,        68.75,         82.5
   5442,        68.75,        81.25
   5443,        68.75,          80.
   5444,        68.75,        78.75
   5445,        68.75,         77.5
   5446,        68.75,        76.25
   5447,        68.75,          75.
   5448,        68.75,        73.75
   5449,        68.75,         72.5
   5450,        68.75,        71.25
   5451,        68.75,          70.
   5452,        68.75,        68.75
   5453,        68.75,         67.5
   5454,        68.75,        66.25
   5455,        68.75,          65.
   5456,        68.75,        63.75
   5457,        68.75,         62.5
   5458,        68.75,        61.25
   5459,        68.75,          60.
   5460,        68.75,        58.75
   5461,        68.75,         57.5
   5462,        68.75,        56.25
   5463,        68.75,          55.
   5464,        68.75,        53.75
   5465,        68.75,         52.5
   5466,        68.75,        51.25
   5467,        68.75,          50.
   5468,        68.75,        48.75
   5469,        68.75,         47.5
   5470,        68.75,        46.25
   5471,        68.75,          45.
   5472,        68.75,        43.75
   5473,        68.75,         42.5
   5474,        68.75,        41.25
   5475,        68.75,          40.
   5476,        68.75,        38.75
   5477,        68.75,         37.5
   5478,        68.75,        36.25
   5479,        68.75,          35.
   5480,        68.75,        33.75
   5481,        68.75,         32.5
   5482,        68.75,        31.25
   5483,        68.75,          30.
   5484,        68.75,        28.75
   5485,        68.75,         27.5
   5486,        68.75,        26.25
   5487,        68.75,          25.
   5488,        68.75,        23.75
   5489,        68.75,         22.5
   5490,        68.75,        21.25
   5491,        68.75,          20.
   5492,        68.75,        18.75
   5493,        68.75,         17.5
   5494,        68.75,        16.25
   5495,        68.75,          15.
   5496,        68.75,        13.75
   5497,        68.75,         12.5
   5498,        68.75,        11.25
   5499,        68.75,          10.
   5500,        68.75,         8.75
   5501,        68.75,          7.5
   5502,        68.75,         6.25
   5503,        68.75,           5.
   5504,        68.75,         3.75
   5505,        68.75,          2.5
   5506,        68.75,         1.25
   5507,          75.,        98.75
   5508,          75.,         97.5
   5509,          75.,        96.25
   5510,          75.,          95.
   5511,          75.,        93.75
   5512,          75.,         92.5
   5513,          75.,        91.25
   5514,          75.,          90.
   5515,          75.,        88.75
   5516,          75.,         87.5
   5517,          75.,        86.25
   5518,          75.,          85.
   5519,          75.,        83.75
   5520,          75.,         82.5
   5521,          75.,        81.25
   5522,          75.,          80.
   5523,          75.,        78.75
   5524,          75.,         77.5
   5525,          75.,        76.25
   5526,          75.,          75.
   5527,          75.,        73.75
   5528,          75.,         72.5
   5529,          75.,        71.25
   5530,          75.,          70.
   5531,          75.,        68.75
   5532,          75.,         67.5
   5533,          75.,        66.25
   5534,          75.,          65.
   5535,          75.,        63.75
   5536,          75.,         62.5
   5537,          75.,        61.25
   5538,          75.,          60.
   5539,          75.,        58.75
   5540,          75.,         57.5
   5541,          75.,        56.25
   5542,          75.,          55.
   5543,          75.,        53.75
   5544,          75.,         52.5
   5545,          75.,        51.25
   5546,          75.,          50.
   5547,          75.,        48.75
   5548,          75.,         47.5
   5549,          75.,        46.25
   5550,          75.,          45.
   5551,          75.,        43.75
   5552,          75.,         42.5
   5553,          75.,        41.25
   5554,          75.,          40.
   5555,          75.,        38.75
   5556,          75.,         37.5
   5557,          75.,        36.25
   5558,          75.,          35.
   5559,          75.,        33.75
   5560,          75.,         32.5
   5561,          75.,        31.25
   5562,          75.,          30.
   5563,          75.,        28.75
   5564,          75.,         27.5
   5565,          75.,        26.25
   5566,          75.,          25.
   5567,          75.,        23.75
   5568,          75.,         22.5
   5569,          75.,        21.25
   5570,          75.,          20.
   5571,          75.,        18.75
   5572,          75.,         17.5
   5573,          75.,        16.25
   5574,          75.,          15.
   5575,          75.,        13.75
   5576,          75.,         12.5
   5577,          75.,        11.25
   5578,          75.,          10.
   5579,          75.,         8.75
   5580,          75.,          7.5
   5581,          75.,         6.25
   5582,          75.,           5.
   5583,          75.,         3.75
   5584,          75.,          2.5
   5585,          75.,         1.25
   5586,        81.25,        98.75
   5587,        81.25,         97.5
   5588,        81.25,        96.25
   5589,        81.25,          95.
   5590,        81.25,        93.75
   5591,        81.25,         92.5
   5592,        81.25,        91.25
   5593,        81.25,          90.
   5594,        81.25,        88.75
   5595,        81.25,         87.5
   5596,        81.25,        86.25
   5597,        81.25,          85.
   5598,        81.25,        83.75
   5599,        81.25,         82.5
   5600,        81.25,        81.25
   5601,        81.25,          80.
   5602,        81.25,        78.75
   5603,        81.25,         77.5
   5604,        81.25,        76.25
   5605,        81.25,          75.
   5606,        81.25,        73.75
   5607,        81.25,         72.5
   5608,        81.25,        71.25
   5609,        81.25,          70.
   5610,        81.25,        68.75
   5611,        81.25,         67.5
   5612,        81.25,        66.25
   5613,        81.25,          65.
   5614,        81.25,        63.75
   5615,        81.25,         62.5
   5616,        81.25,        61.25
   5617,        81.25,          60.
   5618,        81.25,        58.75
   5619,        81.25,         57.5
   5620,        81.25,        56.25
   5621,        81.25,          55.
   5622,        81.25,        53.75
   5623,        81.25,         52.5
   5624,        81.25,        51.25
   5625,        81.25,          50.
   5626,        81.25,        48.75
   5627,        81.25,         47.5
   5628,        81.25,        46.25
   5629,        81.25,          45.
   5630,        81.25,        43.75
   5631,        81.25,         42.5
   5632,        81.25,        41.25
   5633,        81.25,          40.
   5634,        81.25,        38.75
   5635,        81.25,         37.5
   5636,        81.25,        36.25
   5637,        81.25,          35.
   5638,        81.25,        33.75
   5639,        81.25,         32.5
   5640,        81.25,        31.25
   5641,        81.25,          30.
   5642,        81.25,        28.75
   5643,        81.25,         27.5
   5644,        81.25,        26.25
   5645,        81.25,          25.
   5646,        81.25,        23.75
   5647,        81.25,         22.5
   5648,        81.25,        21.25
   5649,        81.25,          20.
   5650,        81.25,        18.75
   5651,        81.25,         17.5
   5652,        81.25,        16.25
   5653,        81.25,          15.
   5654,        81.25,        13.75
   5655,        81.25,         12.5
   5656,        81.25,        11.25
   5657,        81.25,          10.
   5658,        81.25,         8.75
   5659,        81.25,          7.5
   5660,        81.25,         6.25
   5661,        81.25,           5.
   5662,        81.25,         3.75
   5663,        81.25,          2.5
   5664,        81.25,         1.25
   5665,         87.5,        98.75
   5666,         87.5,         97.5
   5667,         87.5,        96.25
   5668,         87.5,          95.
   5669,         87.5,        93.75
   5670,         87.5,         92.5
   5671,         87.5,        91.25
   5672,         87.5,          90.
   5673,         87.5,        88.75
   5674,         87.5,         87.5
   5675,         87.5,        86.25
   5676,         87.5,          85.
   5677,         87.5,        83.75
   5678,         87.5,         82.5
   5679,         87.5,        81.25
   5680,         87.5,          80.
   5681,         87.5,        78.75
   5682,         87.5,         77.5
   5683,         87.5,        76.25
   5684,         87.5,          75.
   5685,         87.5,        73.75
   5686,         87.5,         72.5
   5687,         87.5,        71.25
   5688,         87.5,          70.
   5689,         87.5,        68.75
   5690,         87.5,         67.5
   5691,         87.5,        66.25
   5692,         87.5,          65.
   5693,         87.5,        63.75
   5694,         87.5,         62.5
   5695,         87.5,        61.25
   5696,         87.5,          60.
   5697,         87.5,        58.75
   5698,         87.5,         57.5
   5699,         87.5,        56.25
   5700,         87.5,          55.
   5701,         87.5,        53.75
   5702,         87.5,         52.5
   5703,         87.5,        51.25
   5704,         87.5,          50.
   5705,         87.5,        48.75
   5706,         87.5,         47.5
   5707,         87.5,        46.25
   5708,         87.5,          45.
   5709,         87.5,        43.75
   5710,         87.5,         42.5
   5711,         87.5,        41.25
   5712,         87.5,          40.
   5713,         87.5,        38.75
   5714,         87.5,         37.5
   5715,         87.5,        36.25
   5716,         87.5,          35.
   5717,         87.5,        33.75
   5718,         87.5,         32.5
   5719,         87.5,        31.25
   5720,         87.5,          30.
   5721,         87.5,        28.75
   5722,         87.5,         27.5
   5723,         87.5,        26.25
   5724,         87.5,          25.
   5725,         87.5,        23.75
   5726,         87.5,         22.5
   5727,         87.5,        21.25
   5728,         87.5,          20.
   5729,         87.5,        18.75
   5730,         87.5,         17.5
   5731,         87.5,        16.25
   5732,         87.5,          15.
   5733,         87.5,        13.75
   5734,         87.5,         12.5
   5735,         87.5,        11.25
   5736,         87.5,          10.
   5737,         87.5,         8.75
   5738,         87.5,          7.5
   5739,         87.5,         6.25
   5740,         87.5,           5.
   5741,         87.5,         3.75
   5742,         87.5,          2.5
   5743,         87.5,         1.25
   5744,        93.75,        98.75
   5745,        93.75,         97.5
   5746,        93.75,        96.25
   5747,        93.75,          95.
   5748,        93.75,        93.75
   5749,        93.75,         92.5
   5750,        93.75,        91.25
   5751,        93.75,          90.
   5752,        93.75,        88.75
   5753,        93.75,         87.5
   5754,        93.75,        86.25
   5755,        93.75,          85.
   5756,        93.75,        83.75
   5757,        93.75,         82.5
   5758,        93.75,        81.25
   5759,        93.75,          80.
   5760,        93.75,        78.75
   5761,        93.75,         77.5
   5762,        93.75,        76.25
   5763,        93.75,          75.
   5764,        93.75,        73.75
   5765,        93.75,         72.5
   5766,        93.75,        71.25
   5767,        93.75,          70.
   5768,        93.75,        68.75
   5769,        93.75,         67.5
   5770,        93.75,        66.25
   5771,        93.75,          65.
   5772,        93.75,        63.75
   5773,        93.75,         62.5
   5774,        93.75,        61.25
   5775,        93.75,          60.
   5776,        93.75,        58.75
   5777,        93.75,         57.5
   5778,        93.75,        56.25
   5779,        93.75,          55.
   5780,        93.75,        53.75
   5781,        93.75,         52.5
   5782,        93.75,        51.25
   5783,        93.75,          50.
   5784,        93.75,        48.75
   5785,        93.75,         47.5
   5786,        93.75,        46.25
   5787,        93.75,          45.
   5788,        93.75,        43.75
   5789,        93.75,         42.5
   5790,        93.75,        41.25
   5791,        93.75,          40.
   5792,        93.75,        38.75
   5793,        93.75,         37.5
   5794,        93.75,        36.25
   5795,        93.75,          35.
   5796,        93.75,        33.75
   5797,        93.75,         32.5
   5798,        93.75,        31.25
   5799,        93.75,          30.
   5800,        93.75,        28.75
   5801,        93.75,         27.5
   5802,        93.75,        26.25
   5803,        93.75,          25.
   5804,        93.75,        23.75
   5805,        93.75,         22.5
   5806,        93.75,        21.25
   5807,        93.75,          20.
   5808,        93.75,        18.75
   5809,        93.75,         17.5
   5810,        93.75,        16.25
   5811,        93.75,          15.
   5812,        93.75,        13.75
   5813,        93.75,         12.5
   5814,        93.75,        11.25
   5815,        93.75,          10.
   5816,        93.75,         8.75
   5817,        93.75,          7.5
   5818,        93.75,         6.25
   5819,        93.75,           5.
   5820,        93.75,         3.75
   5821,        93.75,          2.5
   5822,        93.75,         1.25
   5823,         100.,        98.75
   5824,         100.,         97.5
   5825,         100.,        96.25
   5826,         100.,          95.
   5827,         100.,        93.75
   5828,         100.,         92.5
   5829,         100.,        91.25
   5830,         100.,          90.
   5831,         100.,        88.75
   5832,         100.,         87.5
   5833,         100.,        86.25
   5834,         100.,          85.
   5835,         100.,        83.75
   5836,         100.,         82.5
   5837,         100.,        81.25
   5838,         100.,          80.
   5839,         100.,        78.75
   5840,         100.,         77.5
   5841,         100.,        76.25
   5842,         100.,          75.
   5843,         100.,        73.75
   5844,         100.,         72.5
   5845,         100.,        71.25
   5846,         100.,          70.
   5847,         100.,        68.75
   5848,         100.,         67.5
   5849,         100.,        66.25
   5850,         100.,          65.
   5851,         100.,        63.75
   5852,         100.,         62.5
   5853,         100.,        61.25
   5854,         100.,          60.
   5855,         100.,        58.75
   5856,         100.,         57.5
   5857,         100.,        56.25
   5858,         100.,          55.
   5859,         100.,        53.75
   5860,         100.,         52.5
   5861,         100.,        51.25
   5862,         100.,          50.
   5863,         100.,        48.75
   5864,         100.,         47.5
   5865,         100.,        46.25
   5866,         100.,          45.
   5867,         100.,        43.75
   5868,         100.,         42.5
   5869,         100.,        41.25
   5870,         100.,          40.
   5871,         100.,        38.75
   5872,         100.,         37.5
   5873,         100.,        36.25
   5874,         100.,          35.
   5875,         100.,        33.75
   5876,         100.,         32.5
   5877,         100.,        31.25
   5878,         100.,          30.
   5879,         100.,        28.75
   5880,         100.,         27.5
   5881,         100.,        26.25
   5882,         100.,          25.
   5883,         100.,        23.75
   5884,         100.,         22.5
   5885,         100.,        21.25
   5886,         100.,          20.
   5887,         100.,        18.75
   5888,         100.,         17.5
   5889,         100.,        16.25
   5890,         100.,          15.
   5891,         100.,        13.75
   5892,         100.,         12.5
   5893,         100.,        11.25
   5894,         100.,          10.
   5895,         100.,         8.75
   5896,         100.,          7.5
   5897,         100.,         6.25
   5898,         100.,           5.
   5899,         100.,         3.75
   5900,         100.,          2.5
   5901,         100.,         1.25
   5902,       106.25,        98.75
   5903,       106.25,         97.5
   5904,       106.25,        96.25
   5905,       106.25,          95.
   5906,       106.25,        93.75
   5907,       106.25,         92.5
   5908,       106.25,        91.25
   5909,       106.25,          90.
   5910,       106.25,        88.75
   5911,       106.25,         87.5
   5912,       106.25,        86.25
   5913,       106.25,          85.
   5914,       106.25,        83.75
   5915,       106.25,         82.5
   5916,       106.25,        81.25
   5917,       106.25,          80.
   5918,       106.25,        78.75
   5919,       106.25,         77.5
   5920,       106.25,        76.25
   5921,       106.25,          75.
   5922,       106.25,        73.75
   5923,       106.25,         72.5
   5924,       106.25,        71.25
   5925,       106.25,          70.
   5926,       106.25,        68.75
   5927,       106.25,         67.5
   5928,       106.25,        66.25
   5929,       106.25,          65.
   5930,       106.25,        63.75
   5931,       106.25,         62.5
   5932,       106.25,        61.25
   5933,       106.25,          60.
   5934,       106.25,        58.75
   5935,       106.25,         57.5
   5936,       106.25,        56.25
   5937,       106.25,          55.
   5938,       106.25,        53.75
   5939,       106.25,         52.5
   5940,       106.25,        51.25
   5941,       106.25,          50.
   5942,       106.25,        48.75
   5943,       106.25,         47.5
   5944,       106.25,        46.25
   5945,       106.25,          45.
   5946,       106.25,        43.75
   5947,       106.25,         42.5
   5948,       106.25,        41.25
   5949,       106.25,          40.
   5950,       106.25,        38.75
   5951,       106.25,         37.5
   5952,       106.25,        36.25
   5953,       106.25,          35.
   5954,       106.25,        33.75
   5955,       106.25,         32.5
   5956,       106.25,        31.25
   5957,       106.25,          30.
   5958,       106.25,        28.75
   5959,       106.25,         27.5
   5960,       106.25,        26.25
   5961,       106.25,          25.
   5962,       106.25,        23.75
   5963,       106.25,         22.5
   5964,       106.25,        21.25
   5965,       106.25,          20.
   5966,       106.25,        18.75
   5967,       106.25,         17.5
   5968,       106.25,        16.25
   5969,       106.25,          15.
   5970,       106.25,        13.75
   5971,       106.25,         12.5
   5972,       106.25,        11.25
   5973,       106.25,          10.
   5974,       106.25,         8.75
   5975,       106.25,          7.5
   5976,       106.25,         6.25
   5977,       106.25,           5.
   5978,       106.25,         3.75
   5979,       106.25,          2.5
   5980,       106.25,         1.25
   5981,        112.5,        98.75
   5982,        112.5,         97.5
   5983,        112.5,        96.25
   5984,        112.5,          95.
   5985,        112.5,        93.75
   5986,        112.5,         92.5
   5987,        112.5,        91.25
   5988,        112.5,          90.
   5989,        112.5,        88.75
   5990,        112.5,         87.5
   5991,        112.5,        86.25
   5992,        112.5,          85.
   5993,        112.5,        83.75
   5994,        112.5,         82.5
   5995,        112.5,        81.25
   5996,        112.5,          80.
   5997,        112.5,        78.75
   5998,        112.5,         77.5
   5999,        112.5,        76.25
   6000,        112.5,          75.
   6001,        112.5,        73.75
   6002,        112.5,         72.5
   6003,        112.5,        71.25
   6004,        112.5,          70.
   6005,        112.5,        68.75
   6006,        112.5,         67.5
   6007,        112.5,        66.25
   6008,        112.5,          65.
   6009,        112.5,        63.75
   6010,        112.5,         62.5
   6011,        112.5,        61.25
   6012,        112.5,          60.
   6013,        112.5,        58.75
   6014,        112.5,         57.5
   6015,        112.5,        56.25
   6016,        112.5,          55.
   6017,        112.5,        53.75
   6018,        112.5,         52.5
   6019,        112.5,        51.25
   6020,        112.5,          50.
   6021,        112.5,        48.75
   6022,        112.5,         47.5
   6023,        112.5,        46.25
   6024,        112.5,          45.
   6025,        112.5,        43.75
   6026,        112.5,         42.5
   6027,        112.5,        41.25
   6028,        112.5,          40.
   6029,        112.5,        38.75
   6030,        112.5,         37.5
   6031,        112.5,        36.25
   6032,        112.5,          35.
   6033,        112.5,        33.75
   6034,        112.5,         32.5
   6035,        112.5,        31.25
   6036,        112.5,          30.
   6037,        112.5,        28.75
   6038,        112.5,         27.5
   6039,        112.5,        26.25
   6040,        112.5,          25.
   6041,        112.5,        23.75
   6042,        112.5,         22.5
   6043,        112.5,        21.25
   6044,        112.5,          20.
   6045,        112.5,        18.75
   6046,        112.5,         17.5
   6047,        112.5,        16.25
   6048,        112.5,          15.
   6049,        112.5,        13.75
   6050,        112.5,         12.5
   6051,        112.5,        11.25
   6052,        112.5,          10.
   6053,        112.5,         8.75
   6054,        112.5,          7.5
   6055,        112.5,         6.25
   6056,        112.5,           5.
   6057,        112.5,         3.75
   6058,        112.5,          2.5
   6059,        112.5,         1.25
   6060,       118.75,        98.75
   6061,       118.75,         97.5
   6062,       118.75,        96.25
   6063,       118.75,          95.
   6064,       118.75,        93.75
   6065,       118.75,         92.5
   6066,       118.75,        91.25
   6067,       118.75,          90.
   6068,       118.75,        88.75
   6069,       118.75,         87.5
   6070,       118.75,        86.25
   6071,       118.75,          85.
   6072,       118.75,        83.75
   6073,       118.75,         82.5
   6074,       118.75,        81.25
   6075,       118.75,          80.
   6076,       118.75,        78.75
   6077,       118.75,         77.5
   6078,       118.75,        76.25
   6079,       118.75,          75.
   6080,       118.75,        73.75
   6081,       118.75,         72.5
   6082,       118.75,        71.25
   6083,       118.75,          70.
   6084,       118.75,        68.75
   6085,       118.75,         67.5
   6086,       118.75,        66.25
   6087,       118.75,          65.
   6088,       118.75,        63.75
   6089,       118.75,         62.5
   6090,       118.75,        61.25
   6091,       118.75,          60.
   6092,       118.75,        58.75
   6093,       118.75,         57.5
   6094,       118.75,        56.25
   6095,       118.75,          55.
   6096,       118.75,        53.75
   6097,       118.75,         52.5
   6098,       118.75,        51.25
   6099,       118.75,          50.
   6100,       118.75,        48.75
   6101,       118.75,         47.5
   6102,       118.75,        46.25
   6103,       118.75,          45.
   6104,       118.75,        43.75
   6105,       118.75,         42.5
   6106,       118.75,        41.25
   6107,       118.75,          40.
   6108,       118.75,        38.75
   6109,       118.75,         37.5
   6110,       118.75,        36.25
   6111,       118.75,          35.
   6112,       118.75,        33.75
   6113,       118.75,         32.5
   6114,       118.75,        31.25
   6115,       118.75,          30.
   6116,       118.75,        28.75
   6117,       118.75,         27.5
   6118,       118.75,        26.25
   6119,       118.75,          25.
   6120,       118.75,        23.75
   6121,       118.75,         22.5
   6122,       118.75,        21.25
   6123,       118.75,          20.
   6124,       118.75,        18.75
   6125,       118.75,         17.5
   6126,       118.75,        16.25
   6127,       118.75,          15.
   6128,       118.75,        13.75
   6129,       118.75,         12.5
   6130,       118.75,        11.25
   6131,       118.75,          10.
   6132,       118.75,         8.75
   6133,       118.75,          7.5
   6134,       118.75,         6.25
   6135,       118.75,           5.
   6136,       118.75,         3.75
   6137,       118.75,          2.5
   6138,       118.75,         1.25
   6139,         125.,        98.75
   6140,         125.,         97.5
   6141,         125.,        96.25
   6142,         125.,          95.
   6143,         125.,        93.75
   6144,         125.,         92.5
   6145,         125.,        91.25
   6146,         125.,          90.
   6147,         125.,        88.75
   6148,         125.,         87.5
   6149,         125.,        86.25
   6150,         125.,          85.
   6151,         125.,        83.75
   6152,         125.,         82.5
   6153,         125.,        81.25
   6154,         125.,          80.
   6155,         125.,        78.75
   6156,         125.,         77.5
   6157,         125.,        76.25
   6158,         125.,          75.
   6159,         125.,        73.75
   6160,         125.,         72.5
   6161,         125.,        71.25
   6162,         125.,          70.
   6163,         125.,        68.75
   6164,         125.,         67.5
   6165,         125.,        66.25
   6166,         125.,          65.
   6167,         125.,        63.75
   6168,         125.,         62.5
   6169,         125.,        61.25
   6170,         125.,          60.
   6171,         125.,        58.75
   6172,         125.,         57.5
   6173,         125.,        56.25
   6174,         125.,          55.
   6175,         125.,        53.75
   6176,         125.,         52.5
   6177,         125.,        51.25
   6178,         125.,          50.
   6179,         125.,        48.75
   6180,         125.,         47.5
   6181,         125.,        46.25
   6182,         125.,          45.
   6183,         125.,        43.75
   6184,         125.,         42.5
   6185,         125.,        41.25
   6186,         125.,          40.
   6187,         125.,        38.75
   6188,         125.,         37.5
   6189,         125.,        36.25
   6190,         125.,          35.
   6191,         125.,        33.75
   6192,         125.,         32.5
   6193,         125.,        31.25
   6194,         125.,          30.
   6195,         125.,        28.75
   6196,         125.,         27.5
   6197,         125.,        26.25
   6198,         125.,          25.
   6199,         125.,        23.75
   6200,         125.,         22.5
   6201,         125.,        21.25
   6202,         125.,          20.
   6203,         125.,        18.75
   6204,         125.,         17.5
   6205,         125.,        16.25
   6206,         125.,          15.
   6207,         125.,        13.75
   6208,         125.,         12.5
   6209,         125.,        11.25
   6210,         125.,          10.
   6211,         125.,         8.75
   6212,         125.,          7.5
   6213,         125.,         6.25
   6214,         125.,           5.
   6215,         125.,         3.75
   6216,         125.,          2.5
   6217,         125.,         1.25
   6218,       131.25,        98.75
   6219,       131.25,         97.5
   6220,       131.25,        96.25
   6221,       131.25,          95.
   6222,       131.25,        93.75
   6223,       131.25,         92.5
   6224,       131.25,        91.25
   6225,       131.25,          90.
   6226,       131.25,        88.75
   6227,       131.25,         87.5
   6228,       131.25,        86.25
   6229,       131.25,          85.
   6230,       131.25,        83.75
   6231,       131.25,         82.5
   6232,       131.25,        81.25
   6233,       131.25,          80.
   6234,       131.25,        78.75
   6235,       131.25,         77.5
   6236,       131.25,        76.25
   6237,       131.25,          75.
   6238,       131.25,        73.75
   6239,       131.25,         72.5
   6240,       131.25,        71.25
   6241,       131.25,          70.
   6242,       131.25,        68.75
   6243,       131.25,         67.5
   6244,       131.25,        66.25
   6245,       131.25,          65.
   6246,       131.25,        63.75
   6247,       131.25,         62.5
   6248,       131.25,        61.25
   6249,       131.25,          60.
   6250,       131.25,        58.75
   6251,       131.25,         57.5
   6252,       131.25,        56.25
   6253,       131.25,          55.
   6254,       131.25,        53.75
   6255,       131.25,         52.5
   6256,       131.25,        51.25
   6257,       131.25,          50.
   6258,       131.25,        48.75
   6259,       131.25,         47.5
   6260,       131.25,        46.25
   6261,       131.25,          45.
   6262,       131.25,        43.75
   6263,       131.25,         42.5
   6264,       131.25,        41.25
   6265,       131.25,          40.
   6266,       131.25,        38.75
   6267,       131.25,         37.5
   6268,       131.25,        36.25
   6269,       131.25,          35.
   6270,       131.25,        33.75
   6271,       131.25,         32.5
   6272,       131.25,        31.25
   6273,       131.25,          30.
   6274,       131.25,        28.75
   6275,       131.25,         27.5
   6276,       131.25,        26.25
   6277,       131.25,          25.
   6278,       131.25,        23.75
   6279,       131.25,         22.5
   6280,       131.25,        21.25
   6281,       131.25,          20.
   6282,       131.25,        18.75
   6283,       131.25,         17.5
   6284,       131.25,        16.25
   6285,       131.25,          15.
   6286,       131.25,        13.75
   6287,       131.25,         12.5
   6288,       131.25,        11.25
   6289,       131.25,          10.
   6290,       131.25,         8.75
   6291,       131.25,          7.5
   6292,       131.25,         6.25
   6293,       131.25,           5.
   6294,       131.25,         3.75
   6295,       131.25,          2.5
   6296,       131.25,         1.25
   6297,        137.5,        98.75
   6298,        137.5,         97.5
   6299,        137.5,        96.25
   6300,        137.5,          95.
   6301,        137.5,        93.75
   6302,        137.5,         92.5
   6303,        137.5,        91.25
   6304,        137.5,          90.
   6305,        137.5,        88.75
   6306,        137.5,         87.5
   6307,        137.5,        86.25
   6308,        137.5,          85.
   6309,        137.5,        83.75
   6310,        137.5,         82.5
   6311,        137.5,        81.25
   6312,        137.5,          80.
   6313,        137.5,        78.75
   6314,        137.5,         77.5
   6315,        137.5,        76.25
   6316,        137.5,          75.
   6317,        137.5,        73.75
   6318,        137.5,         72.5
   6319,        137.5,        71.25
   6320,        137.5,          70.
   6321,        137.5,        68.75
   6322,        137.5,         67.5
   6323,        137.5,        66.25
   6324,        137.5,          65.
   6325,        137.5,        63.75
   6326,        137.5,         62.5
   6327,        137.5,        61.25
   6328,        137.5,          60.
   6329,        137.5,        58.75
   6330,        137.5,         57.5
   6331,        137.5,        56.25
   6332,        137.5,          55.
   6333,        137.5,        53.75
   6334,        137.5,         52.5
   6335,        137.5,        51.25
   6336,        137.5,          50.
   6337,        137.5,        48.75
   6338,        137.5,         47.5
   6339,        137.5,        46.25
   6340,        137.5,          45.
   6341,        137.5,        43.75
   6342,        137.5,         42.5
   6343,        137.5,        41.25
   6344,        137.5,          40.
   6345,        137.5,        38.75
   6346,        137.5,         37.5
   6347,        137.5,        36.25
   6348,        137.5,          35.
   6349,        137.5,        33.75
   6350,        137.5,         32.5
   6351,        137.5,        31.25
   6352,        137.5,          30.
   6353,        137.5,        28.75
   6354,        137.5,         27.5
   6355,        137.5,        26.25
   6356,        137.5,          25.
   6357,        137.5,        23.75
   6358,        137.5,         22.5
   6359,        137.5,        21.25
   6360,        137.5,          20.
   6361,        137.5,        18.75
   6362,        137.5,         17.5
   6363,        137.5,        16.25
   6364,        137.5,          15.
   6365,        137.5,        13.75
   6366,        137.5,         12.5
   6367,        137.5,        11.25
   6368,        137.5,          10.
   6369,        137.5,         8.75
   6370,        137.5,          7.5
   6371,        137.5,         6.25
   6372,        137.5,           5.
   6373,        137.5,         3.75
   6374,        137.5,          2.5
   6375,        137.5,         1.25
   6376,       143.75,        98.75
   6377,       143.75,         97.5
   6378,       143.75,        96.25
   6379,       143.75,          95.
   6380,       143.75,        93.75
   6381,       143.75,         92.5
   6382,       143.75,        91.25
   6383,       143.75,          90.
   6384,       143.75,        88.75
   6385,       143.75,         87.5
   6386,       143.75,        86.25
   6387,       143.75,          85.
   6388,       143.75,        83.75
   6389,       143.75,         82.5
   6390,       143.75,        81.25
   6391,       143.75,          80.
   6392,       143.75,        78.75
   6393,       143.75,         77.5
   6394,       143.75,        76.25
   6395,       143.75,          75.
   6396,       143.75,        73.75
   6397,       143.75,         72.5
   6398,       143.75,        71.25
   6399,       143.75,          70.
   6400,       143.75,        68.75
   6401,       143.75,         67.5
   6402,       143.75,        66.25
   6403,       143.75,          65.
   6404,       143.75,        63.75
   6405,       143.75,         62.5
   6406,       143.75,        61.25
   6407,       143.75,          60.
   6408,       143.75,        58.75
   6409,       143.75,         57.5
   6410,       143.75,        56.25
   6411,       143.75,          55.
   6412,       143.75,        53.75
   6413,       143.75,         52.5
   6414,       143.75,        51.25
   6415,       143.75,          50.
   6416,       143.75,        48.75
   6417,       143.75,         47.5
   6418,       143.75,        46.25
   6419,       143.75,          45.
   6420,       143.75,        43.75
   6421,       143.75,         42.5
   6422,       143.75,        41.25
   6423,       143.75,          40.
   6424,       143.75,        38.75
   6425,       143.75,         37.5
   6426,       143.75,        36.25
   6427,       143.75,          35.
   6428,       143.75,        33.75
   6429,       143.75,         32.5
   6430,       143.75,        31.25
   6431,       143.75,          30.
   6432,       143.75,        28.75
   6433,       143.75,         27.5
   6434,       143.75,        26.25
   6435,       143.75,          25.
   6436,       143.75,        23.75
   6437,       143.75,         22.5
   6438,       143.75,        21.25
   6439,       143.75,          20.
   6440,       143.75,        18.75
   6441,       143.75,         17.5
   6442,       143.75,        16.25
   6443,       143.75,          15.
   6444,       143.75,        13.75
   6445,       143.75,         12.5
   6446,       143.75,        11.25
   6447,       143.75,          10.
   6448,       143.75,         8.75
   6449,       143.75,          7.5
   6450,       143.75,         6.25
   6451,       143.75,           5.
   6452,       143.75,         3.75
   6453,       143.75,          2.5
   6454,       143.75,         1.25
   6455,        43.75,         1.25
   6456,        43.75,          2.5
   6457,        43.75,         3.75
   6458,        43.75,           5.
   6459,        43.75,         6.25
   6460,        43.75,          7.5
   6461,        43.75,         8.75
   6462,        43.75,          10.
   6463,        43.75,        11.25
   6464,        43.75,         12.5
   6465,        43.75,        13.75
   6466,        43.75,          15.
   6467,        43.75,        16.25
   6468,        43.75,         17.5
   6469,        43.75,        18.75
   6470,        43.75,          20.
   6471,        43.75,        21.25
   6472,        43.75,         22.5
   6473,        43.75,        23.75
   6474,        43.75,          25.
   6475,        43.75,        26.25
   6476,        43.75,         27.5
   6477,        43.75,        28.75
   6478,        43.75,          30.
   6479,        43.75,        31.25
   6480,        43.75,         32.5
   6481,        43.75,        33.75
   6482,        43.75,          35.
   6483,        43.75,        36.25
   6484,        43.75,         37.5
   6485,        43.75,        38.75
   6486,        43.75,          40.
   6487,        43.75,        41.25
   6488,        43.75,         42.5
   6489,        43.75,        43.75
   6490,        43.75,          45.
   6491,        43.75,        46.25
   6492,        43.75,         47.5
   6493,        43.75,        48.75
   6494,        43.75,          50.
   6495,        43.75,        51.25
   6496,        43.75,         52.5
   6497,        43.75,        53.75
   6498,        43.75,          55.
   6499,        43.75,        56.25
   6500,        43.75,         57.5
   6501,        43.75,        58.75
   6502,        43.75,          60.
   6503,        43.75,        61.25
   6504,        43.75,         62.5
   6505,        43.75,        63.75
   6506,        43.75,          65.
   6507,        43.75,        66.25
   6508,        43.75,         67.5
   6509,        43.75,        68.75
   6510,        43.75,          70.
   6511,        43.75,        71.25
   6512,        43.75,         72.5
   6513,        43.75,        73.75
   6514,        43.75,          75.
   6515,        43.75,        76.25
   6516,        43.75,         77.5
   6517,        43.75,        78.75
   6518,        43.75,          80.
   6519,        43.75,        81.25
   6520,        43.75,         82.5
   6521,        43.75,        83.75
   6522,        43.75,          85.
   6523,        43.75,        86.25
   6524,        43.75,         87.5
   6525,        43.75,        88.75
   6526,        43.75,          90.
   6527,        43.75,        91.25
   6528,        43.75,         92.5
   6529,        43.75,        93.75
   6530,        43.75,          95.
   6531,        43.75,        96.25
   6532,        43.75,         97.5
   6533,        43.75,        98.75
   6534,         37.5,         1.25
   6535,         37.5,          2.5
   6536,         37.5,         3.75
   6537,         37.5,           5.
   6538,         37.5,         6.25
   6539,         37.5,          7.5
   6540,         37.5,         8.75
   6541,         37.5,          10.
   6542,         37.5,        11.25
   6543,         37.5,         12.5
   6544,         37.5,        13.75
   6545,         37.5,          15.
   6546,         37.5,        16.25
   6547,         37.5,         17.5
   6548,         37.5,        18.75
   6549,         37.5,          20.
   6550,         37.5,        21.25
   6551,         37.5,         22.5
   6552,         37.5,        23.75
   6553,         37.5,          25.
   6554,         37.5,        26.25
   6555,         37.5,         27.5
   6556,         37.5,        28.75
   6557,         37.5,          30.
   6558,         37.5,        31.25
   6559,         37.5,         32.5
   6560,         37.5,        33.75
   6561,         37.5,          35.
   6562,         37.5,        36.25
   6563,         37.5,         37.5
   6564,         37.5,        38.75
   6565,         37.5,          40.
   6566,         37.5,        41.25
   6567,         37.5,         42.5
   6568,         37.5,        43.75
   6569,         37.5,          45.
   6570,         37.5,        46.25
   6571,         37.5,         47.5
   6572,         37.5,        48.75
   6573,         37.5,          50.
   6574,         37.5,        51.25
   6575,         37.5,         52.5
   6576,         37.5,        53.75
   6577,         37.5,          55.
   6578,         37.5,        56.25
   6579,         37.5,         57.5
   6580,         37.5,        58.75
   6581,         37.5,          60.
   6582,         37.5,        61.25
   6583,         37.5,         62.5
   6584,         37.5,        63.75
   6585,         37.5,          65.
   6586,         37.5,        66.25
   6587,         37.5,         67.5
   6588,         37.5,        68.75
   6589,         37.5,          70.
   6590,         37.5,        71.25
   6591,         37.5,         72.5
   6592,         37.5,        73.75
   6593,         37.5,          75.
   6594,         37.5,        76.25
   6595,         37.5,         77.5
   6596,         37.5,        78.75
   6597,         37.5,          80.
   6598,         37.5,        81.25
   6599,         37.5,         82.5
   6600,         37.5,        83.75
   6601,         37.5,          85.
   6602,         37.5,        86.25
   6603,         37.5,         87.5
   6604,         37.5,        88.75
   6605,         37.5,          90.
   6606,         37.5,        91.25
   6607,         37.5,         92.5
   6608,         37.5,        93.75
   6609,         37.5,          95.
   6610,         37.5,        96.25
   6611,         37.5,         97.5
   6612,         37.5,        98.75
   6613,        31.25,         1.25
   6614,        31.25,          2.5
   6615,        31.25,         3.75
   6616,        31.25,           5.
   6617,        31.25,         6.25
   6618,        31.25,          7.5
   6619,        31.25,         8.75
   6620,        31.25,          10.
   6621,        31.25,        11.25
   6622,        31.25,         12.5
   6623,        31.25,        13.75
   6624,        31.25,          15.
   6625,        31.25,        16.25
   6626,        31.25,         17.5
   6627,        31.25,        18.75
   6628,        31.25,          20.
   6629,        31.25,        21.25
   6630,        31.25,         22.5
   6631,        31.25,        23.75
   6632,        31.25,          25.
   6633,        31.25,        26.25
   6634,        31.25,         27.5
   6635,        31.25,        28.75
   6636,        31.25,          30.
   6637,        31.25,        31.25
   6638,        31.25,         32.5
   6639,        31.25,        33.75
   6640,        31.25,          35.
   6641,        31.25,        36.25
   6642,        31.25,         37.5
   6643,        31.25,        38.75
   6644,        31.25,          40.
   6645,        31.25,        41.25
   6646,        31.25,         42.5
   6647,        31.25,        43.75
   6648,        31.25,          45.
   6649,        31.25,        46.25
   6650,        31.25,         47.5
   6651,        31.25,        48.75
   6652,        31.25,          50.
   6653,        31.25,        51.25
   6654,        31.25,         52.5
   6655,        31.25,        53.75
   6656,        31.25,          55.
   6657,        31.25,        56.25
   6658,        31.25,         57.5
   6659,        31.25,        58.75
   6660,        31.25,          60.
   6661,        31.25,        61.25
   6662,        31.25,         62.5
   6663,        31.25,        63.75
   6664,        31.25,          65.
   6665,        31.25,        66.25
   6666,        31.25,         67.5
   6667,        31.25,        68.75
   6668,        31.25,          70.
   6669,        31.25,        71.25
   6670,        31.25,         72.5
   6671,        31.25,        73.75
   6672,        31.25,          75.
   6673,        31.25,        76.25
   6674,        31.25,         77.5
   6675,        31.25,        78.75
   6676,        31.25,          80.
   6677,        31.25,        81.25
   6678,        31.25,         82.5
   6679,        31.25,        83.75
   6680,        31.25,          85.
   6681,        31.25,        86.25
   6682,        31.25,         87.5
   6683,        31.25,        88.75
   6684,        31.25,          90.
   6685,        31.25,        91.25
   6686,        31.25,         92.5
   6687,        31.25,        93.75
   6688,        31.25,          95.
   6689,        31.25,        96.25
   6690,        31.25,         97.5
   6691,        31.25,        98.75
   6692,          25.,         1.25
   6693,          25.,          2.5
   6694,          25.,         3.75
   6695,          25.,           5.
   6696,          25.,         6.25
   6697,          25.,          7.5
   6698,          25.,         8.75
   6699,          25.,          10.
   6700,          25.,        11.25
   6701,          25.,         12.5
   6702,          25.,        13.75
   6703,          25.,          15.
   6704,          25.,        16.25
   6705,          25.,         17.5
   6706,          25.,        18.75
   6707,          25.,          20.
   6708,          25.,        21.25
   6709,          25.,         22.5
   6710,          25.,        23.75
   6711,          25.,          25.
   6712,          25.,        26.25
   6713,          25.,         27.5
   6714,          25.,        28.75
   6715,          25.,          30.
   6716,          25.,        31.25
   6717,          25.,         32.5
   6718,          25.,        33.75
   6719,          25.,          35.
   6720,          25.,        36.25
   6721,          25.,         37.5
   6722,          25.,        38.75
   6723,          25.,          40.
   6724,          25.,        41.25
   6725,          25.,         42.5
   6726,          25.,        43.75
   6727,          25.,          45.
   6728,          25.,        46.25
   6729,          25.,         47.5
   6730,          25.,        48.75
   6731,          25.,          50.
   6732,          25.,        51.25
   6733,          25.,         52.5
   6734,          25.,        53.75
   6735,          25.,          55.
   6736,          25.,        56.25
   6737,          25.,         57.5
   6738,          25.,        58.75
   6739,          25.,          60.
   6740,          25.,        61.25
   6741,          25.,         62.5
   6742,          25.,        63.75
   6743,          25.,          65.
   6744,          25.,        66.25
   6745,          25.,         67.5
   6746,          25.,        68.75
   6747,          25.,          70.
   6748,          25.,        71.25
   6749,          25.,         72.5
   6750,          25.,        73.75
   6751,          25.,          75.
   6752,          25.,        76.25
   6753,          25.,         77.5
   6754,          25.,        78.75
   6755,          25.,          80.
   6756,          25.,        81.25
   6757,          25.,         82.5
   6758,          25.,        83.75
   6759,          25.,          85.
   6760,          25.,        86.25
   6761,          25.,         87.5
   6762,          25.,        88.75
   6763,          25.,          90.
   6764,          25.,        91.25
   6765,          25.,         92.5
   6766,          25.,        93.75
   6767,          25.,          95.
   6768,          25.,        96.25
   6769,          25.,         97.5
   6770,          25.,        98.75
   6771,        18.75,         1.25
   6772,        18.75,          2.5
   6773,        18.75,         3.75
   6774,        18.75,           5.
   6775,        18.75,         6.25
   6776,        18.75,          7.5
   6777,        18.75,         8.75
   6778,        18.75,          10.
   6779,        18.75,        11.25
   6780,        18.75,         12.5
   6781,        18.75,        13.75
   6782,        18.75,          15.
   6783,        18.75,        16.25
   6784,        18.75,         17.5
   6785,        18.75,        18.75
   6786,        18.75,          20.
   6787,        18.75,        21.25
   6788,        18.75,         22.5
   6789,        18.75,        23.75
   6790,        18.75,          25.
   6791,        18.75,        26.25
   6792,        18.75,         27.5
   6793,        18.75,        28.75
   6794,        18.75,          30.
   6795,        18.75,        31.25
   6796,        18.75,         32.5
   6797,        18.75,        33.75
   6798,        18.75,          35.
   6799,        18.75,        36.25
   6800,        18.75,         37.5
   6801,        18.75,        38.75
   6802,        18.75,          40.
   6803,        18.75,        41.25
   6804,        18.75,         42.5
   6805,        18.75,        43.75
   6806,        18.75,          45.
   6807,        18.75,        46.25
   6808,        18.75,         47.5
   6809,        18.75,        48.75
   6810,        18.75,          50.
   6811,        18.75,        51.25
   6812,        18.75,         52.5
   6813,        18.75,        53.75
   6814,        18.75,          55.
   6815,        18.75,        56.25
   6816,        18.75,         57.5
   6817,        18.75,        58.75
   6818,        18.75,          60.
   6819,        18.75,        61.25
   6820,        18.75,         62.5
   6821,        18.75,        63.75
   6822,        18.75,          65.
   6823,        18.75,        66.25
   6824,        18.75,         67.5
   6825,        18.75,        68.75
   6826,        18.75,          70.
   6827,        18.75,        71.25
   6828,        18.75,         72.5
   6829,        18.75,        73.75
   6830,        18.75,          75.
   6831,        18.75,        76.25
   6832,        18.75,         77.5
   6833,        18.75,        78.75
   6834,        18.75,          80.
   6835,        18.75,        81.25
   6836,        18.75,         82.5
   6837,        18.75,        83.75
   6838,        18.75,          85.
   6839,        18.75,        86.25
   6840,        18.75,         87.5
   6841,        18.75,        88.75
   6842,        18.75,          90.
   6843,        18.75,        91.25
   6844,        18.75,         92.5
   6845,        18.75,        93.75
   6846,        18.75,          95.
   6847,        18.75,        96.25
   6848,        18.75,         97.5
   6849,        18.75,        98.75
   6850,         12.5,         1.25
   6851,         12.5,          2.5
   6852,         12.5,         3.75
   6853,         12.5,           5.
   6854,         12.5,         6.25
   6855,         12.5,          7.5
   6856,         12.5,         8.75
   6857,         12.5,          10.
   6858,         12.5,        11.25
   6859,         12.5,         12.5
   6860,         12.5,        13.75
   6861,         12.5,          15.
   6862,         12.5,        16.25
   6863,         12.5,         17.5
   6864,         12.5,        18.75
   6865,         12.5,          20.
   6866,         12.5,        21.25
   6867,         12.5,         22.5
   6868,         12.5,        23.75
   6869,         12.5,          25.
   6870,         12.5,        26.25
   6871,         12.5,         27.5
   6872,         12.5,        28.75
   6873,         12.5,          30.
   6874,         12.5,        31.25
   6875,         12.5,         32.5
   6876,         12.5,        33.75
   6877,         12.5,          35.
   6878,         12.5,        36.25
   6879,         12.5,         37.5
   6880,         12.5,        38.75
   6881,         12.5,          40.
   6882,         12.5,        41.25
   6883,         12.5,         42.5
   6884,         12.5,        43.75
   6885,         12.5,          45.
   6886,         12.5,        46.25
   6887,         12.5,         47.5
   6888,         12.5,        48.75
   6889,         12.5,          50.
   6890,         12.5,        51.25
   6891,         12.5,         52.5
   6892,         12.5,        53.75
   6893,         12.5,          55.
   6894,         12.5,        56.25
   6895,         12.5,         57.5
   6896,         12.5,        58.75
   6897,         12.5,          60.
   6898,         12.5,        61.25
   6899,         12.5,         62.5
   6900,         12.5,        63.75
   6901,         12.5,          65.
   6902,         12.5,        66.25
   6903,         12.5,         67.5
   6904,         12.5,        68.75
   6905,         12.5,          70.
   6906,         12.5,        71.25
   6907,         12.5,         72.5
   6908,         12.5,        73.75
   6909,         12.5,          75.
   6910,         12.5,        76.25
   6911,         12.5,         77.5
   6912,         12.5,        78.75
   6913,         12.5,          80.
   6914,         12.5,        81.25
   6915,         12.5,         82.5
   6916,         12.5,        83.75
   6917,         12.5,          85.
   6918,         12.5,        86.25
   6919,         12.5,         87.5
   6920,         12.5,        88.75
   6921,         12.5,          90.
   6922,         12.5,        91.25
   6923,         12.5,         92.5
   6924,         12.5,        93.75
   6925,         12.5,          95.
   6926,         12.5,        96.25
   6927,         12.5,         97.5
   6928,         12.5,        98.75
   6929,         6.25,         1.25
   6930,         6.25,          2.5
   6931,         6.25,         3.75
   6932,         6.25,           5.
   6933,         6.25,         6.25
   6934,         6.25,          7.5
   6935,         6.25,         8.75
   6936,         6.25,          10.
   6937,         6.25,        11.25
   6938,         6.25,         12.5
   6939,         6.25,        13.75
   6940,         6.25,          15.
   6941,         6.25,        16.25
   6942,         6.25,         17.5
   6943,         6.25,        18.75
   6944,         6.25,          20.
   6945,         6.25,        21.25
   6946,         6.25,         22.5
   6947,         6.25,        23.75
   6948,         6.25,          25.
   6949,         6.25,        26.25
   6950,         6.25,         27.5
   6951,         6.25,        28.75
   6952,         6.25,          30.
   6953,         6.25,        31.25
   6954,         6.25,         32.5
   6955,         6.25,        33.75
   6956,         6.25,          35.
   6957,         6.25,        36.25
   6958,         6.25,         37.5
   6959,         6.25,        38.75
   6960,         6.25,          40.
   6961,         6.25,        41.25
   6962,         6.25,         42.5
   6963,         6.25,        43.75
   6964,         6.25,          45.
   6965,         6.25,        46.25
   6966,         6.25,         47.5
   6967,         6.25,        48.75
   6968,         6.25,          50.
   6969,         6.25,        51.25
   6970,         6.25,         52.5
   6971,         6.25,        53.75
   6972,         6.25,          55.
   6973,         6.25,        56.25
   6974,         6.25,         57.5
   6975,         6.25,        58.75
   6976,         6.25,          60.
   6977,         6.25,        61.25
   6978,         6.25,         62.5
   6979,         6.25,        63.75
   6980,         6.25,          65.
   6981,         6.25,        66.25
   6982,         6.25,         67.5
   6983,         6.25,        68.75
   6984,         6.25,          70.
   6985,         6.25,        71.25
   6986,         6.25,         72.5
   6987,         6.25,        73.75
   6988,         6.25,          75.
   6989,         6.25,        76.25
   6990,         6.25,         77.5
   6991,         6.25,        78.75
   6992,         6.25,          80.
   6993,         6.25,        81.25
   6994,         6.25,         82.5
   6995,         6.25,        83.75
   6996,         6.25,          85.
   6997,         6.25,        86.25
   6998,         6.25,         87.5
   6999,         6.25,        88.75
   7000,         6.25,          90.
   7001,         6.25,        91.25
   7002,         6.25,         92.5
   7003,         6.25,        93.75
   7004,         6.25,          95.
   7005,         6.25,        96.25
   7006,         6.25,         97.5
   7007,         6.25,        98.75
   7008,   174.048264,   31.3505287
   7009,   175.969696,   31.3570881
   7010,   174.038605,   68.6429596
   7011,   175.960495,    68.648056
   7012,   174.048264,   81.3505249
   7013,   175.969696,   81.3570862
   7014,   176.019714,   20.9982052
   7015,   173.971359,   20.9996262
   7016,   175.951614,   23.7289162
   7017,   174.016388,   23.7218742
   7018,   176.016022,   26.2760201
   7019,   173.973175,     26.26441
   7020,   176.029694,    28.812273
   7021,   173.974487,   28.8120499
   7022,   176.221756,   36.8596191
   7023,   173.764343,   36.8616142
   7024,   174.053406,   34.1167297
   7025,   175.979843,   34.1242676
   7026,   175.890472,   39.6160355
   7027,   174.017944,     39.59272
   7028,   176.115616,   42.1220207
   7029,   174.036163,   42.3518066
   7030,   176.035538,   44.9117966
   7031,   173.966431,   44.9187737
   7032,   176.021942,   47.4624825
   7033,    173.96727,   47.4618988
   7034,   176.022369,   52.5377121
   7035,   173.968277,   52.5376358
   7036,   173.978806,   50.0031319
   7037,   176.026718,   50.0027237
   7038,   176.035233,   55.0822258
   7039,   173.965134,   55.0889473
   7040,   175.962311,   57.6475639
   7041,   173.870544,   57.8802757
   7042,   175.980453,   60.4068031
   7043,   174.101486,   60.3821449
   7044,    176.23587,   63.1408691
   7045,   173.778107,    63.144352
   7046,   175.950241,   65.8826981
   7047,   174.019272,   65.8695679
   7048,   176.034439,   71.1881866
   7049,   173.979355,   71.1873932
   7050,   176.028748,   73.7283249
   7051,   173.982468,   73.7168274
   7052,   176.018219,   76.2779846
   7053,   173.972519,   76.2662735
   7054,   176.029694,   78.8122711
   7055,   173.974472,   78.8120422
   7056,   176.221756,   86.8596191
   7057,   173.764343,    86.861618
   7058,   174.053406,   84.1167297
   7059,   175.979843,   84.1242676
   7060,   175.890472,   89.6160355
   7061,   174.017929,     89.59272
   7062,   176.115616,   92.1220093
   7063,   174.036179,    92.351799
   7064,   176.028564,   94.9204559
   7065,   173.961777,   94.9195862
   7066,   175.848862,   97.7003326
   7067,   173.850174,   97.3836517
   7068,   177.117065,   20.5668907
   7069,   172.877426,   20.5671406
   7070,     177.1828,   1.76793981
   7071,   177.185257,   3.10667443
   7072,   177.182129,        6.875
   7073,   177.183914,        9.375
   7074,   177.179443,       13.125
   7075,   177.179443,       15.625
   7076,   177.173813,   19.3651371
   7077,   177.020508,   21.7816124
   7078,   172.931396,   26.8844166
   7079,   172.948761,   24.3518848
   7080,   177.057632,   25.6315994
   7081,   172.957916,   30.6844807
   7082,   177.069672,   28.1502686
   7083,   172.933441,   49.3716774
   7084,   177.067978,   50.6291046
   7085,   177.069107,   53.1479683
   7086,   172.720428,   58.0757866
   7087,   176.995483,   31.9815617
   7088,   177.058243,   34.5696754
   7089,   177.069656,   46.8509407
   7090,   177.070068,   48.1122208
   7091,   177.088013,    44.313942
   7092,   177.051392,   56.9512024
   7093,   172.859238,   62.0915718
   7094,   176.995926,   59.5533028
   7095,   172.957916,   80.6844788
   7096,   173.014816,   83.2790756
   7097,   177.058243,   84.5696716
   7098,   177.139618,   87.9096375
   7099,    176.86441,   90.7039185
   7100,   172.919067,   95.5893173
   7101,   172.947479,   93.0483017
   7102,   177.347412,   63.1298256
   7103,   177.056351,   65.4315033
   7104,   176.995483,   81.9815598
   7105,   177.062912,   75.6361923
   7106,   177.069672,   78.1502686
   7107,   176.990952,   66.7172165
   7108,   177.044983,   69.3146362
   7109,   177.072845,   71.8511276
   7110,   177.086288,   94.3162842
   7111,   173.700241,   98.6765442
   7112,   177.035828,   96.9263611
   7113,   177.019257,   98.3061371
   7114,   175.060455,   98.8722305
   7115,   172.931549,   89.1650238
   7116,   172.652802,   86.8722763
   7117,   172.931168,   76.8848877
   7118,   172.934433,   74.3627777
   7119,   172.935532,   70.5849762
   7120,   173.006653,   68.0175629
   7121,   172.909683,   55.6870384
   7122,   172.930832,   51.8861504
   7123,   172.923828,   45.5897255
   7124,   172.947464,    43.048317
   7125,   172.931549,     39.16502
   7126,   172.652802,   36.8722763
   7127,   172.814011,   2.13333344
   7128,   172.813843,        5.625
   7129,   172.811829,        8.125
   7130,   172.817871,       11.875
   7131,   172.815857,       14.375
   7132,   172.818832,   18.1239376
   7133,   172.814072,       10.625
   7134,   172.812607,        6.875
   7135,    172.81398,   4.38194466
   7136,   177.183914,       11.875
   7137,   177.186005,        8.125
   7138,    177.18515,   5.62451792
   7139,   172.815567,   16.8748226
   7140,   173.014816,   33.2790794
   7141,   177.139618,   37.9096336
   7142,    176.86441,   40.7039223
   7143,   172.851868,   64.1780243
   7144,   177.186737,   4.37186527
   7145,    177.18631,       10.625
   7146,   177.184814,       14.375
   7147,   177.184204,   16.8748226
   7148,   177.184677,   18.1233273
   7149,   176.996933,   23.0752277
   7150,   177.042557,   24.3644619
   7151,   177.068558,   26.8924885
   7152,   177.068954,   29.4163513
   7153,   177.049774,    30.684864
   7154,   176.999527,   33.2871284
   7155,   177.148666,   35.8263474
   7156,   177.352005,   36.8691216
   7157,   177.029099,   39.2137909
   7158,   177.271515,   41.9241829
   7159,   177.128235,   43.0321693
   7160,   177.078018,   45.5846176
   7161,   177.072601,   49.3714523
   7162,   177.071686,   51.8883095
   7163,   177.076263,   54.4112244
   7164,   177.073151,    55.678112
   7165,    176.99556,   58.2475777
   7166,   177.067566,   60.8359451
   7167,   177.159088,   62.0932388
   7168,   177.155334,   64.1736832
   7169,   176.994995,   68.0285187
   7170,   177.070755,   70.5837631
   7171,   177.070374,   73.1126556
   7172,   177.070511,    74.372879
   7173,   177.069809,   76.8935776
   7174,   177.068954,   79.4163513
   7175,   177.049774,   80.6848602
   7176,   176.999527,   83.2871246
   7177,   177.148666,   85.8263474
   7178,   177.352005,   86.8691177
   7179,   177.029099,   89.2137909
   7180,   177.271515,   91.9241791
   7181,    177.12796,   93.0325546
   7182,   177.067032,   95.6056595
   7183,   176.085709,   98.9757385
   7184,   172.813004,   3.16921306
   7185,   172.812653,        9.375
   7186,    172.81395,       13.125
   7187,   172.813568,   15.6249704
   7188,   172.824371,   19.3651791
   7189,   172.967606,   21.7818127
   7190,   172.983109,   23.0722923
   7191,   172.931458,   25.6221886
   7192,   172.926697,   28.1490993
   7193,   172.931854,   29.4161892
   7194,   173.008881,   31.9697342
   7195,   172.942429,   34.5681152
   7196,    172.84494,    35.827755
   7197,   172.840591,    37.908474
   7198,   172.999146,   40.4415512
   7199,   173.003189,   41.7506599
   7200,   172.925705,   44.3224106
   7201,   172.925171,    46.850174
   7202,   172.926117,   48.1114311
   7203,   172.929031,   50.6293068
   7204,   172.924545,    53.149826
   7205,   172.919647,   54.4158096
   7206,   172.866287,   56.9687195
   7207,   173.126907,   59.2973099
   7208,   172.967758,   60.7862587
   7209,   172.647842,   63.1327896
   7210,    172.93045,   65.4295654
   7211,   172.999146,   66.7114563
   7212,   172.953506,      69.3153
   7213,   172.931351,   71.8470688
   7214,   172.929581,    73.104805
   7215,   172.928177,   75.6256409
   7216,   172.926651,   78.1491776
   7217,   172.931854,   79.4161987
   7218,   173.008881,   81.9697342
   7219,   172.942429,   84.5681152
   7220,    172.84494,   85.8277512
   7221,   172.840591,   87.9084778
   7222,   172.999146,   90.4415512
   7223,   173.003204,   91.7506561
   7224,   172.924133,   94.3224716
   7225,   172.889206,   96.7931595
   7226,   172.837921,   97.8206711
   7227,   174.987503,   21.3291492
   7228,   175.738617,    22.359169
   7229,    174.23468,   22.3624039
   7230,   176.023697,   30.0805054
   7231,   173.989441,   30.0792847
   7232,   173.989746,   69.9197464
   7233,   176.023697,   80.0805054
   7234,   176.023682,   69.9204178
   7235,   173.989426,   80.0792847
   7236,   176.031998,   53.8090744
   7237,   176.040802,   72.4555435
   7238,   173.965668,   48.7324104
   7239,   176.031693,   51.2720757
   7240,   176.029953,   48.7325325
   7241,   173.968063,    51.271801
   7242,   176.031479,   74.9976273
   7243,   173.971008,   74.9903183
   7244,   173.973129,   24.9885406
   7245,   176.006134,   24.9953136
   7246,   173.965424,   27.5427933
   7247,   176.028458,   27.5463047
   7248,   176.018234,   56.3628998
   7249,   173.965271,     77.54319
   7250,   175.982941,   96.2480087
   7251,   173.961105,   53.8112564
   7252,   173.933167,   56.4072151
   7253,   173.922928,   96.1701584
   7254,   173.983231,   93.6378708
   7255,   176.029037,   77.5468063
   7256,     173.9617,   46.1908875
   7257,   173.984238,   43.6377563
   7258,   176.066177,   43.5941925
   7259,   176.032104,   46.1890984
   7260,   176.064697,   93.5960617
   7261,   173.976868,   72.4515076
   7262,   175.761581,   32.7412338
   7263,   175.761581,   82.7412338
   7264,   174.243561,   67.2569046
   7265,   174.214569,   90.9512787
   7266,   175.783081,   59.0473824
   7267,   174.214569,   40.9512787
   7268,   174.987427,   55.7431717
   7269,   175.008347,   94.2608185
   7270,   175.013229,   44.2577667
   7271,    175.00798,   70.5499649
   7272,   175.003967,   29.4500122
   7273,   175.003967,   79.4500046
   7274,   174.996231,    53.178978
   7275,   174.995483,   46.8215446
   7276,   174.882751,   96.8233414
   7277,   175.007416,   73.0849304
   7278,   174.998154,   76.9078522
   7279,    174.99762,   26.9066067
   7280,   174.999466,   75.6317825
   7281,   174.988876,   25.6307964
   7282,   175.003433,   74.3582993
   7283,   174.985718,   24.3897228
   7284,   174.999252,   50.6364021
   7285,   174.998535,   49.3662415
   7286,   175.018631,   83.7262497
   7287,   175.018631,   33.7262497
   7288,   174.984161,   66.2711258
   7289,   175.070786,   60.0409241
   7290,   174.925583,   89.9579391
   7291,   174.925583,   39.9579353
   7292,   175.012085,   58.1596718
   7293,   174.983093,   91.8403931
   7294,   174.983093,   41.8404083
   7295,    174.99765,   51.9057655
   7296,   174.996475,   48.0961838
   7297,   174.995331,   68.2132874
   7298,   175.013489,    81.785202
   7299,   175.013489,    31.785202
   7300,   174.999939,   28.1783409
   7301,   175.000107,   78.1786957
   7302,   175.007812,   71.8195877
   7303,   174.964554,   95.5570602
   7304,   175.000748,   45.5483131
   7305,   174.996185,   54.4522743
   7306,   174.985397,    23.312418
   7307,   175.008087,   30.6837692
   7308,   175.008087,   80.6837692
   7309,    175.00264,   69.3157349
   7310,   175.033081,   42.9673233
   7311,    175.03186,   92.9681625
   7312,   174.963959,   57.0334663
   7313,   174.668503,   97.8912201
   7314,    175.01091,   84.8272018
   7315,    175.01091,   34.8272018
   7316,   174.990295,   65.1717529
   7317,   175.031067,   61.1181374
   7318,   174.966263,   88.8821106
   7319,   174.966263,   38.8821106
   7320,   174.494141,   59.1346169
   7321,   175.498962,   90.8652649
   7322,   175.498962,   40.8652687
   7323,   175.731384,   67.2882614
   7324,   174.274155,   82.7098236
   7325,   174.274155,   32.7098236
   7326,   176.080856,      61.6791
   7327,   176.070984,   85.3963394
   7328,   176.070984,   35.3963394
   7329,   173.927246,   64.6036758
   7330,   173.918228,   88.3218079
   7331,   173.918228,    38.321804
   7332,   174.997498,   63.8550301
   7333,   175.002792,    86.146698
   7334,   175.002792,   36.1466942
   7335,   174.983917,      37.5625
   7336,   174.983917,      87.5625
   7337,   175.015381,    62.439003
   7338,   176.038513,   38.3406143
   7339,   176.038513,   88.3406143
   7340,   173.958847,    61.660244
   7341,   173.936478,   85.3913498
   7342,   173.936478,   35.3913498
   7343,    176.06427,   64.6092529
*Element, type=CPS3
   1,    1,   21,  846
   2,  846,  192,    1
   3,   21,   22,  847
   4,  847,  846,   21
   5,   22,   23,  848
   6,  848,  847,   22
   7,   23,   24,  849
   8,  849,  848,   23
   9,   24,   25,  850
  10,  850,  849,   24
  11,   25,   26,  851
  12,  851,  850,   25
  13,   26,   27,  852
  14,  852,  851,   26
  15,   27,   28,  853
  16,  853,  852,   27
  17,   28,   29,  854
  18,  854,  853,   28
  19,   29,   30,  855
  20,  855,  854,   29
  21,   30,   31,  856
  22,  856,  855,   30
  23,   31,   32,  857
  24,  857,  856,   31
  25,   32,   33,  858
  26,  858,  857,   32
  27,   33,   34,  859
  28,  859,  858,   33
  29,   34,   35,  860
  30,  860,  859,   34
  31,   35,   36,  861
  32,  861,  860,   35
  33,   36,   37,  862
  34,  862,  861,   36
  35,   37,   38,  863
  36,  863,  862,   37
  37,   38,   39,  864
  38,  864,  863,   38
  39,   39,   40,  865
  40,  865,  864,   39
  41,   40,   41,  866
  42,  866,  865,   40
  43,   41,   42,  867
  44,  867,  866,   41
  45,   42,   43,  868
  46,  868,  867,   42
  47,   43,   44,  869
  48,  869,  868,   43
  49,   44,   45,  870
  50,  870,  869,   44
  51,   45,   46,  871
  52,  871,  870,   45
  53,   46,   47,  872
  54,  872,  871,   46
  55,   47,   48,  873
  56,  873,  872,   47
  57,   48,   49,  874
  58,  874,  873,   48
  59,   49,   50,  875
  60,  875,  874,   49
  61,   50,   51,  876
  62,  876,  875,   50
  63,   51,   52,  877
  64,  877,  876,   51
  65,   52,   53,  878
  66,  878,  877,   52
  67,   53,   54,  879
  68,  879,  878,   53
  69,   54,   55,  880
  70,  880,  879,   54
  71,   55,   56,  881
  72,  881,  880,   55
  73,   56,   57,  882
  74,  882,  881,   56
  75,   57,   58,  883
  76,  883,  882,   57
  77,   58,   59,  884
  78,  884,  883,   58
  79,   59,   60,  885
  80,  885,  884,   59
  81,   60,   61,  886
  82,  886,  885,   60
  83,   61,   62,  887
  84,  887,  886,   61
  85,   62,   63,  888
  86,  888,  887,   62
  87,   63,   64,  889
  88,  889,  888,   63
  89,   64,   65,  890
  90,  890,  889,   64
  91,   65,   66,  891
  92,  891,  890,   65
  93,   66,   67,  892
  94,  892,  891,   66
  95,   67,   68,  893
  96,  893,  892,   67
  97,   68,   69,  894
  98,  894,  893,   68
  99,   69,   70,  895
 100,  895,  894,   69
 101,   70,   71,  896
 102,  896,  895,   70
 103,   71,   72,  897
 104,  897,  896,   71
 105,   72,   73,  898
 106,  898,  897,   72
 107,   73,   74,  899
 108,  899,  898,   73
 109,   74,   75,  900
 110,  900,  899,   74
 111,   75,   76,  901
 112,  901,  900,   75
 113,   76,   77,  902
 114,  902,  901,   76
 115,   77,   78,  903
 116,  903,  902,   77
 117,   78,   79,  904
 118,  904,  903,   78
 119,   79,   80,  905
 120,  905,  904,   79
 121,   80,   81,  906
 122,  906,  905,   80
 123,   81,   82,  907
 124,  907,  906,   81
 125,   82,   83,  908
 126,  908,  907,   82
 127,   83,   84,  909
 128,  909,  908,   83
 129,   84,   85,  910
 130,  910,  909,   84
 131,   85,   86,  911
 132,  911,  910,   85
 133,   86,   87,  912
 134,  912,  911,   86
 135,   87,   88,  913
 136,  913,  912,   87
 137,   88,   89,  914
 138,  914,  913,   88
 139,   89,   90,  915
 140,  915,  914,   89
 141,   90,   91,  916
 142,  916,  915,   90
 143,   91,   92,  917
 144,  917,  916,   91
 145,   92,   93,  918
 146,  918,  917,   92
 147,   93,   94,  919
 148,  919,  918,   93
 149,   94,   95,  920
 150,  920,  919,   94
 151,   95,   96,  921
 152,  921,  920,   95
 153,   96,   97,  922
 154,  922,  921,   96
 155,   97,   98,  923
 156,  923,  922,   97
 157,   98,   99,  924
 158,  924,  923,   98
 159,   99,    2,  100
 160,  100,  924,   99
 161,  192,  846,  925
 162,  925,  191,  192
 163,  846,  847,  926
 164,  926,  925,  846
 165,  847,  848,  927
 166,  927,  926,  847
 167,  848,  849,  928
 168,  928,  927,  848
 169,  849,  850,  929
 170,  929,  928,  849
 171,  850,  851,  930
 172,  930,  929,  850
 173,  851,  852,  931
 174,  931,  930,  851
 175,  852,  853,  932
 176,  932,  931,  852
 177,  853,  854,  933
 178,  933,  932,  853
 179,  854,  855,  934
 180,  934,  933,  854
 181,  855,  856,  935
 182,  935,  934,  855
 183,  856,  857,  936
 184,  936,  935,  856
 185,  857,  858,  937
 186,  937,  936,  857
 187,  858,  859,  938
 188,  938,  937,  858
 189,  859,  860,  939
 190,  939,  938,  859
 191,  860,  861,  940
 192,  940,  939,  860
 193,  861,  862,  941
 194,  941,  940,  861
 195,  862,  863,  942
 196,  942,  941,  862
 197,  863,  864,  943
 198,  943,  942,  863
 199,  864,  865,  944
 200,  944,  943,  864
 201,  865,  866,  945
 202,  945,  944,  865
 203,  866,  867,  946
 204,  946,  945,  866
 205,  867,  868,  947
 206,  947,  946,  867
 207,  868,  869,  948
 208,  948,  947,  868
 209,  869,  870,  949
 210,  949,  948,  869
 211,  870,  871,  950
 212,  950,  949,  870
 213,  871,  872,  951
 214,  951,  950,  871
 215,  872,  873,  952
 216,  952,  951,  872
 217,  873,  874,  953
 218,  953,  952,  873
 219,  874,  875,  954
 220,  954,  953,  874
 221,  875,  876,  955
 222,  955,  954,  875
 223,  876,  877,  956
 224,  956,  955,  876
 225,  877,  878,  957
 226,  957,  956,  877
 227,  878,  879,  958
 228,  958,  957,  878
 229,  879,  880,  959
 230,  959,  958,  879
 231,  880,  881,  960
 232,  960,  959,  880
 233,  881,  882,  961
 234,  961,  960,  881
 235,  882,  883,  962
 236,  962,  961,  882
 237,  883,  884,  963
 238,  963,  962,  883
 239,  884,  885,  964
 240,  964,  963,  884
 241,  885,  886,  965
 242,  965,  964,  885
 243,  886,  887,  966
 244,  966,  965,  886
 245,  887,  888,  967
 246,  967,  966,  887
 247,  888,  889,  968
 248,  968,  967,  888
 249,  889,  890,  969
 250,  969,  968,  889
 251,  890,  891,  970
 252,  970,  969,  890
 253,  891,  892,  971
 254,  971,  970,  891
 255,  892,  893,  972
 256,  972,  971,  892
 257,  893,  894,  973
 258,  973,  972,  893
 259,  894,  895,  974
 260,  974,  973,  894
 261,  895,  896,  975
 262,  975,  974,  895
 263,  896,  897,  976
 264,  976,  975,  896
 265,  897,  898,  977
 266,  977,  976,  897
 267,  898,  899,  978
 268,  978,  977,  898
 269,  899,  900,  979
 270,  979,  978,  899
 271,  900,  901,  980
 272,  980,  979,  900
 273,  901,  902,  981
 274,  981,  980,  901
 275,  902,  903,  982
 276,  982,  981,  902
 277,  903,  904,  983
 278,  983,  982,  903
 279,  904,  905,  984
 280,  984,  983,  904
 281,  905,  906,  985
 282,  985,  984,  905
 283,  906,  907,  986
 284,  986,  985,  906
 285,  907,  908,  987
 286,  987,  986,  907
 287,  908,  909,  988
 288,  988,  987,  908
 289,  909,  910,  989
 290,  989,  988,  909
 291,  910,  911,  990
 292,  990,  989,  910
 293,  911,  912,  991
 294,  991,  990,  911
 295,  912,  913,  992
 296,  992,  991,  912
 297,  913,  914,  993
 298,  993,  992,  913
 299,  914,  915,  994
 300,  994,  993,  914
 301,  915,  916,  995
 302,  995,  994,  915
 303,  916,  917,  996
 304,  996,  995,  916
 305,  917,  918,  997
 306,  997,  996,  917
 307,  918,  919,  998
 308,  998,  997,  918
 309,  919,  920,  999
 310,  999,  998,  919
 311,  920,  921, 1000
 312, 1000,  999,  920
 313,  921,  922, 1001
 314, 1001, 1000,  921
 315,  922,  923, 1002
 316, 1002, 1001,  922
 317,  923,  924, 1003
 318, 1003, 1002,  923
 319,  924,  100,  101
 320,  101, 1003,  924
 321,  191,  925, 1004
 322, 1004,  190,  191
 323,  925,  926, 1005
 324, 1005, 1004,  925
 325,  926,  927, 1006
 326, 1006, 1005,  926
 327,  927,  928, 1007
 328, 1007, 1006,  927
 329,  928,  929, 1008
 330, 1008, 1007,  928
 331,  929,  930, 1009
 332, 1009, 1008,  929
 333,  930,  931, 1010
 334, 1010, 1009,  930
 335,  931,  932, 1011
 336, 1011, 1010,  931
 337,  932,  933, 1012
 338, 1012, 1011,  932
 339,  933,  934, 1013
 340, 1013, 1012,  933
 341,  934,  935, 1014
 342, 1014, 1013,  934
 343,  935,  936, 1015
 344, 1015, 1014,  935
 345,  936,  937, 1016
 346, 1016, 1015,  936
 347,  937,  938, 1017
 348, 1017, 1016,  937
 349,  938,  939, 1018
 350, 1018, 1017,  938
 351,  939,  940, 1019
 352, 1019, 1018,  939
 353,  940,  941, 1020
 354, 1020, 1019,  940
 355,  941,  942, 1021
 356, 1021, 1020,  941
 357,  942,  943, 1022
 358, 1022, 1021,  942
 359,  943,  944, 1023
 360, 1023, 1022,  943
 361,  944,  945, 1024
 362, 1024, 1023,  944
 363,  945,  946, 1025
 364, 1025, 1024,  945
 365,  946,  947, 1026
 366, 1026, 1025,  946
 367,  947,  948, 1027
 368, 1027, 1026,  947
 369,  948,  949, 1028
 370, 1028, 1027,  948
 371,  949,  950, 1029
 372, 1029, 1028,  949
 373,  950,  951, 1030
 374, 1030, 1029,  950
 375,  951,  952, 1031
 376, 1031, 1030,  951
 377,  952,  953, 1032
 378, 1032, 1031,  952
 379,  953,  954, 1033
 380, 1033, 1032,  953
 381,  954,  955, 1034
 382, 1034, 1033,  954
 383,  955,  956, 1035
 384, 1035, 1034,  955
 385,  956,  957, 1036
 386, 1036, 1035,  956
 387,  957,  958, 1037
 388, 1037, 1036,  957
 389,  958,  959, 1038
 390, 1038, 1037,  958
 391,  959,  960, 1039
 392, 1039, 1038,  959
 393,  960,  961, 1040
 394, 1040, 1039,  960
 395,  961,  962, 1041
 396, 1041, 1040,  961
 397,  962,  963, 1042
 398, 1042, 1041,  962
 399,  963,  964, 1043
 400, 1043, 1042,  963
 401,  964,  965, 1044
 402, 1044, 1043,  964
 403,  965,  966, 1045
 404, 1045, 1044,  965
 405,  966,  967, 1046
 406, 1046, 1045,  966
 407,  967,  968, 1047
 408, 1047, 1046,  967
 409,  968,  969, 1048
 410, 1048, 1047,  968
 411,  969,  970, 1049
 412, 1049, 1048,  969
 413,  970,  971, 1050
 414, 1050, 1049,  970
 415,  971,  972, 1051
 416, 1051, 1050,  971
 417,  972,  973, 1052
 418, 1052, 1051,  972
 419,  973,  974, 1053
 420, 1053, 1052,  973
 421,  974,  975, 1054
 422, 1054, 1053,  974
 423,  975,  976, 1055
 424, 1055, 1054,  975
 425,  976,  977, 1056
 426, 1056, 1055,  976
 427,  977,  978, 1057
 428, 1057, 1056,  977
 429,  978,  979, 1058
 430, 1058, 1057,  978
 431,  979,  980, 1059
 432, 1059, 1058,  979
 433,  980,  981, 1060
 434, 1060, 1059,  980
 435,  981,  982, 1061
 436, 1061, 1060,  981
 437,  982,  983, 1062
 438, 1062, 1061,  982
 439,  983,  984, 1063
 440, 1063, 1062,  983
 441,  984,  985, 1064
 442, 1064, 1063,  984
 443,  985,  986, 1065
 444, 1065, 1064,  985
 445,  986,  987, 1066
 446, 1066, 1065,  986
 447,  987,  988, 1067
 448, 1067, 1066,  987
 449,  988,  989, 1068
 450, 1068, 1067,  988
 451,  989,  990, 1069
 452, 1069, 1068,  989
 453,  990,  991, 1070
 454, 1070, 1069,  990
 455,  991,  992, 1071
 456, 1071, 1070,  991
 457,  992,  993, 1072
 458, 1072, 1071,  992
 459,  993,  994, 1073
 460, 1073, 1072,  993
 461,  994,  995, 1074
 462, 1074, 1073,  994
 463,  995,  996, 1075
 464, 1075, 1074,  995
 465,  996,  997, 1076
 466, 1076, 1075,  996
 467,  997,  998, 1077
 468, 1077, 1076,  997
 469,  998,  999, 1078
 470, 1078, 1077,  998
 471,  999, 1000, 1079
 472, 1079, 1078,  999
 473, 1000, 1001, 1080
 474, 1080, 1079, 1000
 475, 1001, 1002, 1081
 476, 1081, 1080, 1001
 477, 1002, 1003, 1082
 478, 1082, 1081, 1002
 479, 1003,  101,  102
 480,  102, 1082, 1003
 481,  190, 1004, 1083
 482, 1083,  189,  190
 483, 1004, 1005, 1084
 484, 1084, 1083, 1004
 485, 1005, 1006, 1085
 486, 1085, 1084, 1005
 487, 1006, 1007, 1086
 488, 1086, 1085, 1006
 489, 1007, 1008, 1087
 490, 1087, 1086, 1007
 491, 1008, 1009, 1088
 492, 1088, 1087, 1008
 493, 1009, 1010, 1089
 494, 1089, 1088, 1009
 495, 1010, 1011, 1090
 496, 1090, 1089, 1010
 497, 1011, 1012, 1091
 498, 1091, 1090, 1011
 499, 1012, 1013, 1092
 500, 1092, 1091, 1012
 501, 1013, 1014, 1093
 502, 1093, 1092, 1013
 503, 1014, 1015, 1094
 504, 1094, 1093, 1014
 505, 1015, 1016, 1095
 506, 1095, 1094, 1015
 507, 1016, 1017, 1096
 508, 1096, 1095, 1016
 509, 1017, 1018, 1097
 510, 1097, 1096, 1017
 511, 1018, 1019, 1098
 512, 1098, 1097, 1018
 513, 1019, 1020, 1099
 514, 1099, 1098, 1019
 515, 1020, 1021, 1100
 516, 1100, 1099, 1020
 517, 1021, 1022, 1101
 518, 1101, 1100, 1021
 519, 1022, 1023, 1102
 520, 1102, 1101, 1022
 521, 1023, 1024, 1103
 522, 1103, 1102, 1023
 523, 1024, 1025, 1104
 524, 1104, 1103, 1024
 525, 1025, 1026, 1105
 526, 1105, 1104, 1025
 527, 1026, 1027, 1106
 528, 1106, 1105, 1026
 529, 1027, 1028, 1107
 530, 1107, 1106, 1027
 531, 1028, 1029, 1108
 532, 1108, 1107, 1028
 533, 1029, 1030, 1109
 534, 1109, 1108, 1029
 535, 1030, 1031, 1110
 536, 1110, 1109, 1030
 537, 1031, 1032, 1111
 538, 1111, 1110, 1031
 539, 1032, 1033, 1112
 540, 1112, 1111, 1032
 541, 1033, 1034, 1113
 542, 1113, 1112, 1033
 543, 1034, 1035, 1114
 544, 1114, 1113, 1034
 545, 1035, 1036, 1115
 546, 1115, 1114, 1035
 547, 1036, 1037, 1116
 548, 1116, 1115, 1036
 549, 1037, 1038, 1117
 550, 1117, 1116, 1037
 551, 1038, 1039, 1118
 552, 1118, 1117, 1038
 553, 1039, 1040, 1119
 554, 1119, 1118, 1039
 555, 1040, 1041, 1120
 556, 1120, 1119, 1040
 557, 1041, 1042, 1121
 558, 1121, 1120, 1041
 559, 1042, 1043, 1122
 560, 1122, 1121, 1042
 561, 1043, 1044, 1123
 562, 1123, 1122, 1043
 563, 1044, 1045, 1124
 564, 1124, 1123, 1044
 565, 1045, 1046, 1125
 566, 1125, 1124, 1045
 567, 1046, 1047, 1126
 568, 1126, 1125, 1046
 569, 1047, 1048, 1127
 570, 1127, 1126, 1047
 571, 1048, 1049, 1128
 572, 1128, 1127, 1048
 573, 1049, 1050, 1129
 574, 1129, 1128, 1049
 575, 1050, 1051, 1130
 576, 1130, 1129, 1050
 577, 1051, 1052, 1131
 578, 1131, 1130, 1051
 579, 1052, 1053, 1132
 580, 1132, 1131, 1052
 581, 1053, 1054, 1133
 582, 1133, 1132, 1053
 583, 1054, 1055, 1134
 584, 1134, 1133, 1054
 585, 1055, 1056, 1135
 586, 1135, 1134, 1055
 587, 1056, 1057, 1136
 588, 1136, 1135, 1056
 589, 1057, 1058, 1137
 590, 1137, 1136, 1057
 591, 1058, 1059, 1138
 592, 1138, 1137, 1058
 593, 1059, 1060, 1139
 594, 1139, 1138, 1059
 595, 1060, 1061, 1140
 596, 1140, 1139, 1060
 597, 1061, 1062, 1141
 598, 1141, 1140, 1061
 599, 1062, 1063, 1142
 600, 1142, 1141, 1062
 601, 1063, 1064, 1143
 602, 1143, 1142, 1063
 603, 1064, 1065, 1144
 604, 1144, 1143, 1064
 605, 1065, 1066, 1145
 606, 1145, 1144, 1065
 607, 1066, 1067, 1146
 608, 1146, 1145, 1066
 609, 1067, 1068, 1147
 610, 1147, 1146, 1067
 611, 1068, 1069, 1148
 612, 1148, 1147, 1068
 613, 1069, 1070, 1149
 614, 1149, 1148, 1069
 615, 1070, 1071, 1150
 616, 1150, 1149, 1070
 617, 1071, 1072, 1151
 618, 1151, 1150, 1071
 619, 1072, 1073, 1152
 620, 1152, 1151, 1072
 621, 1073, 1074, 1153
 622, 1153, 1152, 1073
 623, 1074, 1075, 1154
 624, 1154, 1153, 1074
 625, 1075, 1076, 1155
 626, 1155, 1154, 1075
 627, 1076, 1077, 1156
 628, 1156, 1155, 1076
 629, 1077, 1078, 1157
 630, 1157, 1156, 1077
 631, 1078, 1079, 1158
 632, 1158, 1157, 1078
 633, 1079, 1080, 1159
 634, 1159, 1158, 1079
 635, 1080, 1081, 1160
 636, 1160, 1159, 1080
 637, 1081, 1082, 1161
 638, 1161, 1160, 1081
 639, 1082,  102,  103
 640,  103, 1161, 1082
 641,  189, 1083, 1162
 642, 1162,  188,  189
 643, 1083, 1084, 1163
 644, 1163, 1162, 1083
 645, 1084, 1085, 1164
 646, 1164, 1163, 1084
 647, 1085, 1086, 1165
 648, 1165, 1164, 1085
 649, 1086, 1087, 1166
 650, 1166, 1165, 1086
 651, 1087, 1088, 1167
 652, 1167, 1166, 1087
 653, 1088, 1089, 1168
 654, 1168, 1167, 1088
 655, 1089, 1090, 1169
 656, 1169, 1168, 1089
 657, 1090, 1091, 1170
 658, 1170, 1169, 1090
 659, 1091, 1092, 1171
 660, 1171, 1170, 1091
 661, 1092, 1093, 1172
 662, 1172, 1171, 1092
 663, 1093, 1094, 1173
 664, 1173, 1172, 1093
 665, 1094, 1095, 1174
 666, 1174, 1173, 1094
 667, 1095, 1096, 1175
 668, 1175, 1174, 1095
 669, 1096, 1097, 1176
 670, 1176, 1175, 1096
 671, 1097, 1098, 1177
 672, 1177, 1176, 1097
 673, 1098, 1099, 1178
 674, 1178, 1177, 1098
 675, 1099, 1100, 1179
 676, 1179, 1178, 1099
 677, 1100, 1101, 1180
 678, 1180, 1179, 1100
 679, 1101, 1102, 1181
 680, 1181, 1180, 1101
 681, 1102, 1103, 1182
 682, 1182, 1181, 1102
 683, 1103, 1104, 1183
 684, 1183, 1182, 1103
 685, 1104, 1105, 1184
 686, 1184, 1183, 1104
 687, 1105, 1106, 1185
 688, 1185, 1184, 1105
 689, 1106, 1107, 1186
 690, 1186, 1185, 1106
 691, 1107, 1108, 1187
 692, 1187, 1186, 1107
 693, 1108, 1109, 1188
 694, 1188, 1187, 1108
 695, 1109, 1110, 1189
 696, 1189, 1188, 1109
 697, 1110, 1111, 1190
 698, 1190, 1189, 1110
 699, 1111, 1112, 1191
 700, 1191, 1190, 1111
 701, 1112, 1113, 1192
 702, 1192, 1191, 1112
 703, 1113, 1114, 1193
 704, 1193, 1192, 1113
 705, 1114, 1115, 1194
 706, 1194, 1193, 1114
 707, 1115, 1116, 1195
 708, 1195, 1194, 1115
 709, 1116, 1117, 1196
 710, 1196, 1195, 1116
 711, 1117, 1118, 1197
 712, 1197, 1196, 1117
 713, 1118, 1119, 1198
 714, 1198, 1197, 1118
 715, 1119, 1120, 1199
 716, 1199, 1198, 1119
 717, 1120, 1121, 1200
 718, 1200, 1199, 1120
 719, 1121, 1122, 1201
 720, 1201, 1200, 1121
 721, 1122, 1123, 1202
 722, 1202, 1201, 1122
 723, 1123, 1124, 1203
 724, 1203, 1202, 1123
 725, 1124, 1125, 1204
 726, 1204, 1203, 1124
 727, 1125, 1126, 1205
 728, 1205, 1204, 1125
 729, 1126, 1127, 1206
 730, 1206, 1205, 1126
 731, 1127, 1128, 1207
 732, 1207, 1206, 1127
 733, 1128, 1129, 1208
 734, 1208, 1207, 1128
 735, 1129, 1130, 1209
 736, 1209, 1208, 1129
 737, 1130, 1131, 1210
 738, 1210, 1209, 1130
 739, 1131, 1132, 1211
 740, 1211, 1210, 1131
 741, 1132, 1133, 1212
 742, 1212, 1211, 1132
 743, 1133, 1134, 1213
 744, 1213, 1212, 1133
 745, 1134, 1135, 1214
 746, 1214, 1213, 1134
 747, 1135, 1136, 1215
 748, 1215, 1214, 1135
 749, 1136, 1137, 1216
 750, 1216, 1215, 1136
 751, 1137, 1138, 1217
 752, 1217, 1216, 1137
 753, 1138, 1139, 1218
 754, 1218, 1217, 1138
 755, 1139, 1140, 1219
 756, 1219, 1218, 1139
 757, 1140, 1141, 1220
 758, 1220, 1219, 1140
 759, 1141, 1142, 1221
 760, 1221, 1220, 1141
 761, 1142, 1143, 1222
 762, 1222, 1221, 1142
 763, 1143, 1144, 1223
 764, 1223, 1222, 1143
 765, 1144, 1145, 1224
 766, 1224, 1223, 1144
 767, 1145, 1146, 1225
 768, 1225, 1224, 1145
 769, 1146, 1147, 1226
 770, 1226, 1225, 1146
 771, 1147, 1148, 1227
 772, 1227, 1226, 1147
 773, 1148, 1149, 1228
 774, 1228, 1227, 1148
 775, 1149, 1150, 1229
 776, 1229, 1228, 1149
 777, 1150, 1151, 1230
 778, 1230, 1229, 1150
 779, 1151, 1152, 1231
 780, 1231, 1230, 1151
 781, 1152, 1153, 1232
 782, 1232, 1231, 1152
 783, 1153, 1154, 1233
 784, 1233, 1232, 1153
 785, 1154, 1155, 1234
 786, 1234, 1233, 1154
 787, 1155, 1156, 1235
 788, 1235, 1234, 1155
 789, 1156, 1157, 1236
 790, 1236, 1235, 1156
 791, 1157, 1158, 1237
 792, 1237, 1236, 1157
 793, 1158, 1159, 1238
 794, 1238, 1237, 1158
 795, 1159, 1160, 1239
 796, 1239, 1238, 1159
 797, 1160, 1161, 1240
 798, 1240, 1239, 1160
 799, 1161,  103,  104
 800,  104, 1240, 1161
 801,  188, 1162, 1241
 802, 1241,  187,  188
 803, 1162, 1163, 1242
 804, 1242, 1241, 1162
 805, 1163, 1164, 1243
 806, 1243, 1242, 1163
 807, 1164, 1165, 1244
 808, 1244, 1243, 1164
 809, 1165, 1166, 1245
 810, 1245, 1244, 1165
 811, 1166, 1167, 1246
 812, 1246, 1245, 1166
 813, 1167, 1168, 1247
 814, 1247, 1246, 1167
 815, 1168, 1169, 1248
 816, 1248, 1247, 1168
 817, 1169, 1170, 1249
 818, 1249, 1248, 1169
 819, 1170, 1171, 1250
 820, 1250, 1249, 1170
 821, 1171, 1172, 1251
 822, 1251, 1250, 1171
 823, 1172, 1173, 1252
 824, 1252, 1251, 1172
 825, 1173, 1174, 1253
 826, 1253, 1252, 1173
 827, 1174, 1175, 1254
 828, 1254, 1253, 1174
 829, 1175, 1176, 1255
 830, 1255, 1254, 1175
 831, 1176, 1177, 1256
 832, 1256, 1255, 1176
 833, 1177, 1178, 1257
 834, 1257, 1256, 1177
 835, 1178, 1179, 1258
 836, 1258, 1257, 1178
 837, 1179, 1180, 1259
 838, 1259, 1258, 1179
 839, 1180, 1181, 1260
 840, 1260, 1259, 1180
 841, 1181, 1182, 1261
 842, 1261, 1260, 1181
 843, 1182, 1183, 1262
 844, 1262, 1261, 1182
 845, 1183, 1184, 1263
 846, 1263, 1262, 1183
 847, 1184, 1185, 1264
 848, 1264, 1263, 1184
 849, 1185, 1186, 1265
 850, 1265, 1264, 1185
 851, 1186, 1187, 1266
 852, 1266, 1265, 1186
 853, 1187, 1188, 1267
 854, 1267, 1266, 1187
 855, 1188, 1189, 1268
 856, 1268, 1267, 1188
 857, 1189, 1190, 1269
 858, 1269, 1268, 1189
 859, 1190, 1191, 1270
 860, 1270, 1269, 1190
 861, 1191, 1192, 1271
 862, 1271, 1270, 1191
 863, 1192, 1193, 1272
 864, 1272, 1271, 1192
 865, 1193, 1194, 1273
 866, 1273, 1272, 1193
 867, 1194, 1195, 1274
 868, 1274, 1273, 1194
 869, 1195, 1196, 1275
 870, 1275, 1274, 1195
 871, 1196, 1197, 1276
 872, 1276, 1275, 1196
 873, 1197, 1198, 1277
 874, 1277, 1276, 1197
 875, 1198, 1199, 1278
 876, 1278, 1277, 1198
 877, 1199, 1200, 1279
 878, 1279, 1278, 1199
 879, 1200, 1201, 1280
 880, 1280, 1279, 1200
 881, 1201, 1202, 1281
 882, 1281, 1280, 1201
 883, 1202, 1203, 1282
 884, 1282, 1281, 1202
 885, 1203, 1204, 1283
 886, 1283, 1282, 1203
 887, 1204, 1205, 1284
 888, 1284, 1283, 1204
 889, 1205, 1206, 1285
 890, 1285, 1284, 1205
 891, 1206, 1207, 1286
 892, 1286, 1285, 1206
 893, 1207, 1208, 1287
 894, 1287, 1286, 1207
 895, 1208, 1209, 1288
 896, 1288, 1287, 1208
 897, 1209, 1210, 1289
 898, 1289, 1288, 1209
 899, 1210, 1211, 1290
 900, 1290, 1289, 1210
 901, 1211, 1212, 1291
 902, 1291, 1290, 1211
 903, 1212, 1213, 1292
 904, 1292, 1291, 1212
 905, 1213, 1214, 1293
 906, 1293, 1292, 1213
 907, 1214, 1215, 1294
 908, 1294, 1293, 1214
 909, 1215, 1216, 1295
 910, 1295, 1294, 1215
 911, 1216, 1217, 1296
 912, 1296, 1295, 1216
 913, 1217, 1218, 1297
 914, 1297, 1296, 1217
 915, 1218, 1219, 1298
 916, 1298, 1297, 1218
 917, 1219, 1220, 1299
 918, 1299, 1298, 1219
 919, 1220, 1221, 1300
 920, 1300, 1299, 1220
 921, 1221, 1222, 1301
 922, 1301, 1300, 1221
 923, 1222, 1223, 1302
 924, 1302, 1301, 1222
 925, 1223, 1224, 1303
 926, 1303, 1302, 1223
 927, 1224, 1225, 1304
 928, 1304, 1303, 1224
 929, 1225, 1226, 1305
 930, 1305, 1304, 1225
 931, 1226, 1227, 1306
 932, 1306, 1305, 1226
 933, 1227, 1228, 1307
 934, 1307, 1306, 1227
 935, 1228, 1229, 1308
 936, 1308, 1307, 1228
 937, 1229, 1230, 1309
 938, 1309, 1308, 1229
 939, 1230, 1231, 1310
 940, 1310, 1309, 1230
 941, 1231, 1232, 1311
 942, 1311, 1310, 1231
 943, 1232, 1233, 1312
 944, 1312, 1311, 1232
 945, 1233, 1234, 1313
 946, 1313, 1312, 1233
 947, 1234, 1235, 1314
 948, 1314, 1313, 1234
 949, 1235, 1236, 1315
 950, 1315, 1314, 1235
 951, 1236, 1237, 1316
 952, 1316, 1315, 1236
 953, 1237, 1238, 1317
 954, 1317, 1316, 1237
 955, 1238, 1239, 1318
 956, 1318, 1317, 1238
 957, 1239, 1240, 1319
 958, 1319, 1318, 1239
 959, 1240,  104,  105
 960,  105, 1319, 1240
 961,  187, 1241, 1320
 962, 1320,  186,  187
 963, 1241, 1242, 1321
 964, 1321, 1320, 1241
 965, 1242, 1243, 1322
 966, 1322, 1321, 1242
 967, 1243, 1244, 1323
 968, 1323, 1322, 1243
 969, 1244, 1245, 1324
 970, 1324, 1323, 1244
 971, 1245, 1246, 1325
 972, 1325, 1324, 1245
 973, 1246, 1247, 1326
 974, 1326, 1325, 1246
 975, 1247, 1248, 1327
 976, 1327, 1326, 1247
 977, 1248, 1249, 1328
 978, 1328, 1327, 1248
 979, 1249, 1250, 1329
 980, 1329, 1328, 1249
 981, 1250, 1251, 1330
 982, 1330, 1329, 1250
 983, 1251, 1252, 1331
 984, 1331, 1330, 1251
 985, 1252, 1253, 1332
 986, 1332, 1331, 1252
 987, 1253, 1254, 1333
 988, 1333, 1332, 1253
 989, 1254, 1255, 1334
 990, 1334, 1333, 1254
 991, 1255, 1256, 1335
 992, 1335, 1334, 1255
 993, 1256, 1257, 1336
 994, 1336, 1335, 1256
 995, 1257, 1258, 1337
 996, 1337, 1336, 1257
 997, 1258, 1259, 1338
 998, 1338, 1337, 1258
 999, 1259, 1260, 1339
1000, 1339, 1338, 1259
1001, 1260, 1261, 1340
1002, 1340, 1339, 1260
1003, 1261, 1262, 1341
1004, 1341, 1340, 1261
1005, 1262, 1263, 1342
1006, 1342, 1341, 1262
1007, 1263, 1264, 1343
1008, 1343, 1342, 1263
1009, 1264, 1265, 1344
1010, 1344, 1343, 1264
1011, 1265, 1266, 1345
1012, 1345, 1344, 1265
1013, 1266, 1267, 1346
1014, 1346, 1345, 1266
1015, 1267, 1268, 1347
1016, 1347, 1346, 1267
1017, 1268, 1269, 1348
1018, 1348, 1347, 1268
1019, 1269, 1270, 1349
1020, 1349, 1348, 1269
1021, 1270, 1271, 1350
1022, 1350, 1349, 1270
1023, 1271, 1272, 1351
1024, 1351, 1350, 1271
1025, 1272, 1273, 1352
1026, 1352, 1351, 1272
1027, 1273, 1274, 1353
1028, 1353, 1352, 1273
1029, 1274, 1275, 1354
1030, 1354, 1353, 1274
1031, 1275, 1276, 1355
1032, 1355, 1354, 1275
1033, 1276, 1277, 1356
1034, 1356, 1355, 1276
1035, 1277, 1278, 1357
1036, 1357, 1356, 1277
1037, 1278, 1279, 1358
1038, 1358, 1357, 1278
1039, 1279, 1280, 1359
1040, 1359, 1358, 1279
1041, 1280, 1281, 1360
1042, 1360, 1359, 1280
1043, 1281, 1282, 1361
1044, 1361, 1360, 1281
1045, 1282, 1283, 1362
1046, 1362, 1361, 1282
1047, 1283, 1284, 1363
1048, 1363, 1362, 1283
1049, 1284, 1285, 1364
1050, 1364, 1363, 1284
1051, 1285, 1286, 1365
1052, 1365, 1364, 1285
1053, 1286, 1287, 1366
1054, 1366, 1365, 1286
1055, 1287, 1288, 1367
1056, 1367, 1366, 1287
1057, 1288, 1289, 1368
1058, 1368, 1367, 1288
1059, 1289, 1290, 1369
1060, 1369, 1368, 1289
1061, 1290, 1291, 1370
1062, 1370, 1369, 1290
1063, 1291, 1292, 1371
1064, 1371, 1370, 1291
1065, 1292, 1293, 1372
1066, 1372, 1371, 1292
1067, 1293, 1294, 1373
1068, 1373, 1372, 1293
1069, 1294, 1295, 1374
1070, 1374, 1373, 1294
1071, 1295, 1296, 1375
1072, 1375, 1374, 1295
1073, 1296, 1297, 1376
1074, 1376, 1375, 1296
1075, 1297, 1298, 1377
1076, 1377, 1376, 1297
1077, 1298, 1299, 1378
1078, 1378, 1377, 1298
1079, 1299, 1300, 1379
1080, 1379, 1378, 1299
1081, 1300, 1301, 1380
1082, 1380, 1379, 1300
1083, 1301, 1302, 1381
1084, 1381, 1380, 1301
1085, 1302, 1303, 1382
1086, 1382, 1381, 1302
1087, 1303, 1304, 1383
1088, 1383, 1382, 1303
1089, 1304, 1305, 1384
1090, 1384, 1383, 1304
1091, 1305, 1306, 1385
1092, 1385, 1384, 1305
1093, 1306, 1307, 1386
1094, 1386, 1385, 1306
1095, 1307, 1308, 1387
1096, 1387, 1386, 1307
1097, 1308, 1309, 1388
1098, 1388, 1387, 1308
1099, 1309, 1310, 1389
1100, 1389, 1388, 1309
1101, 1310, 1311, 1390
1102, 1390, 1389, 1310
1103, 1311, 1312, 1391
1104, 1391, 1390, 1311
1105, 1312, 1313, 1392
1106, 1392, 1391, 1312
1107, 1313, 1314, 1393
1108, 1393, 1392, 1313
1109, 1314, 1315, 1394
1110, 1394, 1393, 1314
1111, 1315, 1316, 1395
1112, 1395, 1394, 1315
1113, 1316, 1317, 1396
1114, 1396, 1395, 1316
1115, 1317, 1318, 1397
1116, 1397, 1396, 1317
1117, 1318, 1319, 1398
1118, 1398, 1397, 1318
1119, 1319,  105,  106
1120,  106, 1398, 1319
1121,  186, 1320,  185
1122,  185,    4,  186
1123, 1320, 1321,  184
1124,  184,  185, 1320
1125, 1321, 1322,  183
1126,  183,  184, 1321
1127, 1322, 1323,  182
1128,  182,  183, 1322
1129, 1323, 1324,  181
1130,  181,  182, 1323
1131, 1324, 1325,  180
1132,  180,  181, 1324
1133, 1325, 1326,  179
1134,  179,  180, 1325
1135, 1326, 1327,  178
1136,  178,  179, 1326
1137, 1327, 1328,  177
1138,  177,  178, 1327
1139, 1328, 1329,  176
1140,  176,  177, 1328
1141, 1329, 1330,  175
1142,  175,  176, 1329
1143, 1330, 1331,  174
1144,  174,  175, 1330
1145, 1331, 1332,  173
1146,  173,  174, 1331
1147, 1332, 1333,  172
1148,  172,  173, 1332
1149, 1333, 1334,  171
1150,  171,  172, 1333
1151, 1334, 1335,  170
1152,  170,  171, 1334
1153, 1335, 1336,  169
1154,  169,  170, 1335
1155, 1336, 1337,  168
1156,  168,  169, 1336
1157, 1337, 1338,  167
1158,  167,  168, 1337
1159, 1338, 1339,  166
1160,  166,  167, 1338
1161, 1339, 1340,  165
1162,  165,  166, 1339
1163, 1340, 1341,  164
1164,  164,  165, 1340
1165, 1341, 1342,  163
1166,  163,  164, 1341
1167, 1342, 1343,  162
1168,  162,  163, 1342
1169, 1343, 1344,  161
1170,  161,  162, 1343
1171, 1344, 1345,  160
1172,  160,  161, 1344
1173, 1345, 1346,  159
1174,  159,  160, 1345
1175, 1346, 1347,  158
1176,  158,  159, 1346
1177, 1347, 1348,  157
1178,  157,  158, 1347
1179, 1348, 1349,  156
1180,  156,  157, 1348
1181, 1349, 1350,  155
1182,  155,  156, 1349
1183, 1350, 1351,  154
1184,  154,  155, 1350
1185, 1351, 1352,  153
1186,  153,  154, 1351
1187, 1352, 1353,  152
1188,  152,  153, 1352
1189, 1353, 1354,  151
1190,  151,  152, 1353
1191, 1354, 1355,  150
1192,  150,  151, 1354
1193, 1355, 1356,  149
1194,  149,  150, 1355
1195, 1356, 1357,  148
1196,  148,  149, 1356
1197, 1357, 1358,  147
1198,  147,  148, 1357
1199, 1358, 1359,  146
1200,  146,  147, 1358
1201, 1359, 1360,  145
1202,  145,  146, 1359
1203, 1360, 1361,  144
1204,  144,  145, 1360
1205, 1361, 1362,  143
1206,  143,  144, 1361
1207, 1362, 1363,  142
1208,  142,  143, 1362
1209, 1363, 1364,  141
1210,  141,  142, 1363
1211, 1364, 1365,  140
1212,  140,  141, 1364
1213, 1365, 1366,  139
1214,  139,  140, 1365
1215, 1366, 1367,  138
1216,  138,  139, 1366
1217, 1367, 1368,  137
1218,  137,  138, 1367
1219, 1368, 1369,  136
1220,  136,  137, 1368
1221, 1369, 1370,  135
1222,  135,  136, 1369
1223, 1370, 1371,  134
1224,  134,  135, 1370
1225, 1371, 1372,  133
1226,  133,  134, 1371
1227, 1372, 1373,  132
1228,  132,  133, 1372
1229, 1373, 1374,  131
1230,  131,  132, 1373
1231, 1374, 1375,  130
1232,  130,  131, 1374
1233, 1375, 1376,  129
1234,  129,  130, 1375
1235, 1376, 1377,  128
1236,  128,  129, 1376
1237, 1377, 1378,  127
1238,  127,  128, 1377
1239, 1378, 1379,  126
1240,  126,  127, 1378
1241, 1379, 1380,  125
1242,  125,  126, 1379
1243, 1380, 1381,  124
1244,  124,  125, 1380
1245, 1381, 1382,  123
1246,  123,  124, 1381
1247, 1382, 1383,  122
1248,  122,  123, 1382
1249, 1383, 1384,  121
1250,  121,  122, 1383
1251, 1384, 1385,  120
1252,  120,  121, 1384
1253, 1385, 1386,  119
1254,  119,  120, 1385
1255, 1386, 1387,  118
1256,  118,  119, 1386
1257, 1387, 1388,  117
1258,  117,  118, 1387
1259, 1388, 1389,  116
1260,  116,  117, 1388
1261, 1389, 1390,  115
1262,  115,  116, 1389
1263, 1390, 1391,  114
1264,  114,  115, 1390
1265, 1391, 1392,  113
1266,  113,  114, 1391
1267, 1392, 1393,  112
1268,  112,  113, 1392
1269, 1393, 1394,  111
1270,  111,  112, 1393
1271, 1394, 1395,  110
1272,  110,  111, 1394
1273, 1395, 1396,  109
1274,  109,  110, 1395
1275, 1396, 1397,  108
1276,  108,  109, 1396
1277, 1397, 1398,  107
1278,  107,  108, 1397
1279, 1398,  106,    3
1280,    3,  107, 1398
1281,    5,  193, 1399
1282, 1399,  301,    5
1283,  193,  194, 1400
1284, 1400, 1399,  193
1285,  194,  195, 1401
1286, 1401, 1400,  194
1287,  195,  196, 1402
1288, 1402, 1401,  195
1289,  196,  197, 1403
1290, 1403, 1402,  196
1291,  197,  198, 1404
1292, 1404, 1403,  197
1293,  198,  199, 1405
1294, 1405, 1404,  198
1295,  199,  200, 1406
1296, 1406, 1405,  199
1297,  200,  201, 1407
1298, 1407, 1406,  200
1299,  201,  202, 1408
1300, 1408, 1407,  201
1301,  202,  203, 1409
1302, 1409, 1408,  202
1303,  203,  204, 1410
1304, 1410, 1409,  203
1305,  204,  205, 1411
1306, 1411, 1410,  204
1307,  205,  206, 1412
1308, 1412, 1411,  205
1309,  206,  207, 1413
1310, 1413, 1412,  206
1311,  207,  208, 1414
1312, 1414, 1413,  207
1313,  208,  209, 1415
1314, 1415, 1414,  208
1315,  209,  210, 1416
1316, 1416, 1415,  209
1317,  210,  211, 1417
1318, 1417, 1416,  210
1319,  211,  212, 1418
1320, 1418, 1417,  211
1321,  212,  213, 1419
1322, 1419, 1418,  212
1323,  213,  214, 1420
1324, 1420, 1419,  213
1325,  214,  215, 1421
1326, 1421, 1420,  214
1327,  215,  216, 1422
1328, 1422, 1421,  215
1329,  216,  217, 1423
1330, 1423, 1422,  216
1331,  217,  218, 1424
1332, 1424, 1423,  217
1333,  218,  219, 1425
1334, 1425, 1424,  218
1335,  219,  220, 1426
1336, 1426, 1425,  219
1337,  220,  221, 1427
1338, 1427, 1426,  220
1339,  221,  222, 1428
1340, 1428, 1427,  221
1341,  222,  223, 1429
1342, 1429, 1428,  222
1343,  223,  224, 1430
1344, 1430, 1429,  223
1345,  224,  225, 1431
1346, 1431, 1430,  224
1347,  225,  226, 1432
1348, 1432, 1431,  225
1349,  226,  227, 1433
1350, 1433, 1432,  226
1351,  227,  228, 1434
1352, 1434, 1433,  227
1353,  228,  229, 1435
1354, 1435, 1434,  228
1355,  229,  230, 1436
1356, 1436, 1435,  229
1357,  230,  231, 1437
1358, 1437, 1436,  230
1359,  231,  232, 1438
1360, 1438, 1437,  231
1361,  232,  233, 1439
1362, 1439, 1438,  232
1363,  233,  234, 1440
1364, 1440, 1439,  233
1365,  234,  235, 1441
1366, 1441, 1440,  234
1367,  235,  236, 1442
1368, 1442, 1441,  235
1369,  236,  237, 1443
1370, 1443, 1442,  236
1371,  237,  238, 1444
1372, 1444, 1443,  237
1373,  238,  239, 1445
1374, 1445, 1444,  238
1375,  239,  240, 1446
1376, 1446, 1445,  239
1377,  240,  241, 1447
1378, 1447, 1446,  240
1379,  241,  242, 1448
1380, 1448, 1447,  241
1381,  242,  243, 1449
1382, 1449, 1448,  242
1383,  243,  244, 1450
1384, 1450, 1449,  243
1385,  244,  245, 1451
1386, 1451, 1450,  244
1387,  245,  246, 1452
1388, 1452, 1451,  245
1389,  246,  247, 1453
1390, 1453, 1452,  246
1391,  247,  248, 1454
1392, 1454, 1453,  247
1393,  248,  249, 1455
1394, 1455, 1454,  248
1395,  249,  250, 1456
1396, 1456, 1455,  249
1397,  250,  251, 1457
1398, 1457, 1456,  250
1399,  251,  252, 1458
1400, 1458, 1457,  251
1401,  252,  253, 1459
1402, 1459, 1458,  252
1403,  253,  254, 1460
1404, 1460, 1459,  253
1405,  254,  255, 1461
1406, 1461, 1460,  254
1407,  255,  256, 1462
1408, 1462, 1461,  255
1409,  256,  257, 1463
1410, 1463, 1462,  256
1411,  257,  258, 1464
1412, 1464, 1463,  257
1413,  258,  259, 1465
1414, 1465, 1464,  258
1415,  259,  260, 1466
1416, 1466, 1465,  259
1417,  260,  261, 1467
1418, 1467, 1466,  260
1419,  261,  262, 1468
1420, 1468, 1467,  261
1421,  262,  263, 1469
1422, 1469, 1468,  262
1423,  263,  264, 1470
1424, 1470, 1469,  263
1425,  264,  265, 1471
1426, 1471, 1470,  264
1427,  265,  266, 1472
1428, 1472, 1471,  265
1429,  266,  267, 1473
1430, 1473, 1472,  266
1431,  267,  268, 1474
1432, 1474, 1473,  267
1433,  268,  269, 1475
1434, 1475, 1474,  268
1435,  269,  270, 1476
1436, 1476, 1475,  269
1437,  270,  271, 1477
1438, 1477, 1476,  270
1439,  271,    6,  272
1440,  272, 1477,  271
1441,  301, 1399, 1478
1442, 1478,  300,  301
1443, 1399, 1400, 1479
1444, 1479, 1478, 1399
1445, 1400, 1401, 1480
1446, 1480, 1479, 1400
1447, 1401, 1402, 1481
1448, 1481, 1480, 1401
1449, 1402, 1403, 1482
1450, 1482, 1481, 1402
1451, 1403, 1404, 1483
1452, 1483, 1482, 1403
1453, 1404, 1405, 1484
1454, 1484, 1483, 1404
1455, 1405, 1406, 1485
1456, 1485, 1484, 1405
1457, 1406, 1407, 1486
1458, 1486, 1485, 1406
1459, 1407, 1408, 1487
1460, 1487, 1486, 1407
1461, 1408, 1409, 1488
1462, 1488, 1487, 1408
1463, 1409, 1410, 1489
1464, 1489, 1488, 1409
1465, 1410, 1411, 1490
1466, 1490, 1489, 1410
1467, 1411, 1412, 1491
1468, 1491, 1490, 1411
1469, 1412, 1413, 1492
1470, 1492, 1491, 1412
1471, 1413, 1414, 1493
1472, 1493, 1492, 1413
1473, 1414, 1415, 1494
1474, 1494, 1493, 1414
1475, 1415, 1416, 1495
1476, 1495, 1494, 1415
1477, 1416, 1417, 1496
1478, 1496, 1495, 1416
1479, 1417, 1418, 1497
1480, 1497, 1496, 1417
1481, 1418, 1419, 1498
1482, 1498, 1497, 1418
1483, 1419, 1420, 1499
1484, 1499, 1498, 1419
1485, 1420, 1421, 1500
1486, 1500, 1499, 1420
1487, 1421, 1422, 1501
1488, 1501, 1500, 1421
1489, 1422, 1423, 1502
1490, 1502, 1501, 1422
1491, 1423, 1424, 1503
1492, 1503, 1502, 1423
1493, 1424, 1425, 1504
1494, 1504, 1503, 1424
1495, 1425, 1426, 1505
1496, 1505, 1504, 1425
1497, 1426, 1427, 1506
1498, 1506, 1505, 1426
1499, 1427, 1428, 1507
1500, 1507, 1506, 1427
1501, 1428, 1429, 1508
1502, 1508, 1507, 1428
1503, 1429, 1430, 1509
1504, 1509, 1508, 1429
1505, 1430, 1431, 1510
1506, 1510, 1509, 1430
1507, 1431, 1432, 1511
1508, 1511, 1510, 1431
1509, 1432, 1433, 1512
1510, 1512, 1511, 1432
1511, 1433, 1434, 1513
1512, 1513, 1512, 1433
1513, 1434, 1435, 1514
1514, 1514, 1513, 1434
1515, 1435, 1436, 1515
1516, 1515, 1514, 1435
1517, 1436, 1437, 1516
1518, 1516, 1515, 1436
1519, 1437, 1438, 1517
1520, 1517, 1516, 1437
1521, 1438, 1439, 1518
1522, 1518, 1517, 1438
1523, 1439, 1440, 1519
1524, 1519, 1518, 1439
1525, 1440, 1441, 1520
1526, 1520, 1519, 1440
1527, 1441, 1442, 1521
1528, 1521, 1520, 1441
1529, 1442, 1443, 1522
1530, 1522, 1521, 1442
1531, 1443, 1444, 1523
1532, 1523, 1522, 1443
1533, 1444, 1445, 1524
1534, 1524, 1523, 1444
1535, 1445, 1446, 1525
1536, 1525, 1524, 1445
1537, 1446, 1447, 1526
1538, 1526, 1525, 1446
1539, 1447, 1448, 1527
1540, 1527, 1526, 1447
1541, 1448, 1449, 1528
1542, 1528, 1527, 1448
1543, 1449, 1450, 1529
1544, 1529, 1528, 1449
1545, 1450, 1451, 1530
1546, 1530, 1529, 1450
1547, 1451, 1452, 1531
1548, 1531, 1530, 1451
1549, 1452, 1453, 1532
1550, 1532, 1531, 1452
1551, 1453, 1454, 1533
1552, 1533, 1532, 1453
1553, 1454, 1455, 1534
1554, 1534, 1533, 1454
1555, 1455, 1456, 1535
1556, 1535, 1534, 1455
1557, 1456, 1457, 1536
1558, 1536, 1535, 1456
1559, 1457, 1458, 1537
1560, 1537, 1536, 1457
1561, 1458, 1459, 1538
1562, 1538, 1537, 1458
1563, 1459, 1460, 1539
1564, 1539, 1538, 1459
1565, 1460, 1461, 1540
1566, 1540, 1539, 1460
1567, 1461, 1462, 1541
1568, 1541, 1540, 1461
1569, 1462, 1463, 1542
1570, 1542, 1541, 1462
1571, 1463, 1464, 1543
1572, 1543, 1542, 1463
1573, 1464, 1465, 1544
1574, 1544, 1543, 1464
1575, 1465, 1466, 1545
1576, 1545, 1544, 1465
1577, 1466, 1467, 1546
1578, 1546, 1545, 1466
1579, 1467, 1468, 1547
1580, 1547, 1546, 1467
1581, 1468, 1469, 1548
1582, 1548, 1547, 1468
1583, 1469, 1470, 1549
1584, 1549, 1548, 1469
1585, 1470, 1471, 1550
1586, 1550, 1549, 1470
1587, 1471, 1472, 1551
1588, 1551, 1550, 1471
1589, 1472, 1473, 1552
1590, 1552, 1551, 1472
1591, 1473, 1474, 1553
1592, 1553, 1552, 1473
1593, 1474, 1475, 1554
1594, 1554, 1553, 1474
1595, 1475, 1476, 1555
1596, 1555, 1554, 1475
1597, 1476, 1477, 1556
1598, 1556, 1555, 1476
1599, 1477,  272,  273
1600,  273, 1556, 1477
1601,  300, 1478, 1557
1602, 1557,  299,  300
1603, 1478, 1479, 1558
1604, 1558, 1557, 1478
1605, 1479, 1480, 1559
1606, 1559, 1558, 1479
1607, 1480, 1481, 1560
1608, 1560, 1559, 1480
1609, 1481, 1482, 1561
1610, 1561, 1560, 1481
1611, 1482, 1483, 1562
1612, 1562, 1561, 1482
1613, 1483, 1484, 1563
1614, 1563, 1562, 1483
1615, 1484, 1485, 1564
1616, 1564, 1563, 1484
1617, 1485, 1486, 1565
1618, 1565, 1564, 1485
1619, 1486, 1487, 1566
1620, 1566, 1565, 1486
1621, 1487, 1488, 1567
1622, 1567, 1566, 1487
1623, 1488, 1489, 1568
1624, 1568, 1567, 1488
1625, 1489, 1490, 1569
1626, 1569, 1568, 1489
1627, 1490, 1491, 1570
1628, 1570, 1569, 1490
1629, 1491, 1492, 1571
1630, 1571, 1570, 1491
1631, 1492, 1493, 1572
1632, 1572, 1571, 1492
1633, 1493, 1494, 1573
1634, 1573, 1572, 1493
1635, 1494, 1495, 1574
1636, 1574, 1573, 1494
1637, 1495, 1496, 1575
1638, 1575, 1574, 1495
1639, 1496, 1497, 1576
1640, 1576, 1575, 1496
1641, 1497, 1498, 1577
1642, 1577, 1576, 1497
1643, 1498, 1499, 1578
1644, 1578, 1577, 1498
1645, 1499, 1500, 1579
1646, 1579, 1578, 1499
1647, 1500, 1501, 1580
1648, 1580, 1579, 1500
1649, 1501, 1502, 1581
1650, 1581, 1580, 1501
1651, 1502, 1503, 1582
1652, 1582, 1581, 1502
1653, 1503, 1504, 1583
1654, 1583, 1582, 1503
1655, 1504, 1505, 1584
1656, 1584, 1583, 1504
1657, 1505, 1506, 1585
1658, 1585, 1584, 1505
1659, 1506, 1507, 1586
1660, 1586, 1585, 1506
1661, 1507, 1508, 1587
1662, 1587, 1586, 1507
1663, 1508, 1509, 1588
1664, 1588, 1587, 1508
1665, 1509, 1510, 1589
1666, 1589, 1588, 1509
1667, 1510, 1511, 1590
1668, 1590, 1589, 1510
1669, 1511, 1512, 1591
1670, 1591, 1590, 1511
1671, 1512, 1513, 1592
1672, 1592, 1591, 1512
1673, 1513, 1514, 1593
1674, 1593, 1592, 1513
1675, 1514, 1515, 1594
1676, 1594, 1593, 1514
1677, 1515, 1516, 1595
1678, 1595, 1594, 1515
1679, 1516, 1517, 1596
1680, 1596, 1595, 1516
1681, 1517, 1518, 1597
1682, 1597, 1596, 1517
1683, 1518, 1519, 1598
1684, 1598, 1597, 1518
1685, 1519, 1520, 1599
1686, 1599, 1598, 1519
1687, 1520, 1521, 1600
1688, 1600, 1599, 1520
1689, 1521, 1522, 1601
1690, 1601, 1600, 1521
1691, 1522, 1523, 1602
1692, 1602, 1601, 1522
1693, 1523, 1524, 1603
1694, 1603, 1602, 1523
1695, 1524, 1525, 1604
1696, 1604, 1603, 1524
1697, 1525, 1526, 1605
1698, 1605, 1604, 1525
1699, 1526, 1527, 1606
1700, 1606, 1605, 1526
1701, 1527, 1528, 1607
1702, 1607, 1606, 1527
1703, 1528, 1529, 1608
1704, 1608, 1607, 1528
1705, 1529, 1530, 1609
1706, 1609, 1608, 1529
1707, 1530, 1531, 1610
1708, 1610, 1609, 1530
1709, 1531, 1532, 1611
1710, 1611, 1610, 1531
1711, 1532, 1533, 1612
1712, 1612, 1611, 1532
1713, 1533, 1534, 1613
1714, 1613, 1612, 1533
1715, 1534, 1535, 1614
1716, 1614, 1613, 1534
1717, 1535, 1536, 1615
1718, 1615, 1614, 1535
1719, 1536, 1537, 1616
1720, 1616, 1615, 1536
1721, 1537, 1538, 1617
1722, 1617, 1616, 1537
1723, 1538, 1539, 1618
1724, 1618, 1617, 1538
1725, 1539, 1540, 1619
1726, 1619, 1618, 1539
1727, 1540, 1541, 1620
1728, 1620, 1619, 1540
1729, 1541, 1542, 1621
1730, 1621, 1620, 1541
1731, 1542, 1543, 1622
1732, 1622, 1621, 1542
1733, 1543, 1544, 1623
1734, 1623, 1622, 1543
1735, 1544, 1545, 1624
1736, 1624, 1623, 1544
1737, 1545, 1546, 1625
1738, 1625, 1624, 1545
1739, 1546, 1547, 1626
1740, 1626, 1625, 1546
1741, 1547, 1548, 1627
1742, 1627, 1626, 1547
1743, 1548, 1549, 1628
1744, 1628, 1627, 1548
1745, 1549, 1550, 1629
1746, 1629, 1628, 1549
1747, 1550, 1551, 1630
1748, 1630, 1629, 1550
1749, 1551, 1552, 1631
1750, 1631, 1630, 1551
1751, 1552, 1553, 1632
1752, 1632, 1631, 1552
1753, 1553, 1554, 1633
1754, 1633, 1632, 1553
1755, 1554, 1555, 1634
1756, 1634, 1633, 1554
1757, 1555, 1556, 1635
1758, 1635, 1634, 1555
1759, 1556,  273,  274
1760,  274, 1635, 1556
1761,  299, 1557, 1636
1762, 1636,  298,  299
1763, 1557, 1558, 1637
1764, 1637, 1636, 1557
1765, 1558, 1559, 1638
1766, 1638, 1637, 1558
1767, 1559, 1560, 1639
1768, 1639, 1638, 1559
1769, 1560, 1561, 1640
1770, 1640, 1639, 1560
1771, 1561, 1562, 1641
1772, 1641, 1640, 1561
1773, 1562, 1563, 1642
1774, 1642, 1641, 1562
1775, 1563, 1564, 1643
1776, 1643, 1642, 1563
1777, 1564, 1565, 1644
1778, 1644, 1643, 1564
1779, 1565, 1566, 1645
1780, 1645, 1644, 1565
1781, 1566, 1567, 1646
1782, 1646, 1645, 1566
1783, 1567, 1568, 1647
1784, 1647, 1646, 1567
1785, 1568, 1569, 1648
1786, 1648, 1647, 1568
1787, 1569, 1570, 1649
1788, 1649, 1648, 1569
1789, 1570, 1571, 1650
1790, 1650, 1649, 1570
1791, 1571, 1572, 1651
1792, 1651, 1650, 1571
1793, 1572, 1573, 1652
1794, 1652, 1651, 1572
1795, 1573, 1574, 1653
1796, 1653, 1652, 1573
1797, 1574, 1575, 1654
1798, 1654, 1653, 1574
1799, 1575, 1576, 1655
1800, 1655, 1654, 1575
1801, 1576, 1577, 1656
1802, 1656, 1655, 1576
1803, 1577, 1578, 1657
1804, 1657, 1656, 1577
1805, 1578, 1579, 1658
1806, 1658, 1657, 1578
1807, 1579, 1580, 1659
1808, 1659, 1658, 1579
1809, 1580, 1581, 1660
1810, 1660, 1659, 1580
1811, 1581, 1582, 1661
1812, 1661, 1660, 1581
1813, 1582, 1583, 1662
1814, 1662, 1661, 1582
1815, 1583, 1584, 1663
1816, 1663, 1662, 1583
1817, 1584, 1585, 1664
1818, 1664, 1663, 1584
1819, 1585, 1586, 1665
1820, 1665, 1664, 1585
1821, 1586, 1587, 1666
1822, 1666, 1665, 1586
1823, 1587, 1588, 1667
1824, 1667, 1666, 1587
1825, 1588, 1589, 1668
1826, 1668, 1667, 1588
1827, 1589, 1590, 1669
1828, 1669, 1668, 1589
1829, 1590, 1591, 1670
1830, 1670, 1669, 1590
1831, 1591, 1592, 1671
1832, 1671, 1670, 1591
1833, 1592, 1593, 1672
1834, 1672, 1671, 1592
1835, 1593, 1594, 1673
1836, 1673, 1672, 1593
1837, 1594, 1595, 1674
1838, 1674, 1673, 1594
1839, 1595, 1596, 1675
1840, 1675, 1674, 1595
1841, 1596, 1597, 1676
1842, 1676, 1675, 1596
1843, 1597, 1598, 1677
1844, 1677, 1676, 1597
1845, 1598, 1599, 1678
1846, 1678, 1677, 1598
1847, 1599, 1600, 1679
1848, 1679, 1678, 1599
1849, 1600, 1601, 1680
1850, 1680, 1679, 1600
1851, 1601, 1602, 1681
1852, 1681, 1680, 1601
1853, 1602, 1603, 1682
1854, 1682, 1681, 1602
1855, 1603, 1604, 1683
1856, 1683, 1682, 1603
1857, 1604, 1605, 1684
1858, 1684, 1683, 1604
1859, 1605, 1606, 1685
1860, 1685, 1684, 1605
1861, 1606, 1607, 1686
1862, 1686, 1685, 1606
1863, 1607, 1608, 1687
1864, 1687, 1686, 1607
1865, 1608, 1609, 1688
1866, 1688, 1687, 1608
1867, 1609, 1610, 1689
1868, 1689, 1688, 1609
1869, 1610, 1611, 1690
1870, 1690, 1689, 1610
1871, 1611, 1612, 1691
1872, 1691, 1690, 1611
1873, 1612, 1613, 1692
1874, 1692, 1691, 1612
1875, 1613, 1614, 1693
1876, 1693, 1692, 1613
1877, 1614, 1615, 1694
1878, 1694, 1693, 1614
1879, 1615, 1616, 1695
1880, 1695, 1694, 1615
1881, 1616, 1617, 1696
1882, 1696, 1695, 1616
1883, 1617, 1618, 1697
1884, 1697, 1696, 1617
1885, 1618, 1619, 1698
1886, 1698, 1697, 1618
1887, 1619, 1620, 1699
1888, 1699, 1698, 1619
1889, 1620, 1621, 1700
1890, 1700, 1699, 1620
1891, 1621, 1622, 1701
1892, 1701, 1700, 1621
1893, 1622, 1623, 1702
1894, 1702, 1701, 1622
1895, 1623, 1624, 1703
1896, 1703, 1702, 1623
1897, 1624, 1625, 1704
1898, 1704, 1703, 1624
1899, 1625, 1626, 1705
1900, 1705, 1704, 1625
1901, 1626, 1627, 1706
1902, 1706, 1705, 1626
1903, 1627, 1628, 1707
1904, 1707, 1706, 1627
1905, 1628, 1629, 1708
1906, 1708, 1707, 1628
1907, 1629, 1630, 1709
1908, 1709, 1708, 1629
1909, 1630, 1631, 1710
1910, 1710, 1709, 1630
1911, 1631, 1632, 1711
1912, 1711, 1710, 1631
1913, 1632, 1633, 1712
1914, 1712, 1711, 1632
1915, 1633, 1634, 1713
1916, 1713, 1712, 1633
1917, 1634, 1635, 1714
1918, 1714, 1713, 1634
1919, 1635,  274,  275
1920,  275, 1714, 1635
1921,  298, 1636, 1715
1922, 1715,  297,  298
1923, 1636, 1637, 1716
1924, 1716, 1715, 1636
1925, 1637, 1638, 1717
1926, 1717, 1716, 1637
1927, 1638, 1639, 1718
1928, 1718, 1717, 1638
1929, 1639, 1640, 1719
1930, 1719, 1718, 1639
1931, 1640, 1641, 1720
1932, 1720, 1719, 1640
1933, 1641, 1642, 1721
1934, 1721, 1720, 1641
1935, 1642, 1643, 1722
1936, 1722, 1721, 1642
1937, 1643, 1644, 1723
1938, 1723, 1722, 1643
1939, 1644, 1645, 1724
1940, 1724, 1723, 1644
1941, 1645, 1646, 1725
1942, 1725, 1724, 1645
1943, 1646, 1647, 1726
1944, 1726, 1725, 1646
1945, 1647, 1648, 1727
1946, 1727, 1726, 1647
1947, 1648, 1649, 1728
1948, 1728, 1727, 1648
1949, 1649, 1650, 1729
1950, 1729, 1728, 1649
1951, 1650, 1651, 1730
1952, 1730, 1729, 1650
1953, 1651, 1652, 1731
1954, 1731, 1730, 1651
1955, 1652, 1653, 1732
1956, 1732, 1731, 1652
1957, 1653, 1654, 1733
1958, 1733, 1732, 1653
1959, 1654, 1655, 1734
1960, 1734, 1733, 1654
1961, 1655, 1656, 1735
1962, 1735, 1734, 1655
1963, 1656, 1657, 1736
1964, 1736, 1735, 1656
1965, 1657, 1658, 1737
1966, 1737, 1736, 1657
1967, 1658, 1659, 1738
1968, 1738, 1737, 1658
1969, 1659, 1660, 1739
1970, 1739, 1738, 1659
1971, 1660, 1661, 1740
1972, 1740, 1739, 1660
1973, 1661, 1662, 1741
1974, 1741, 1740, 1661
1975, 1662, 1663, 1742
1976, 1742, 1741, 1662
1977, 1663, 1664, 1743
1978, 1743, 1742, 1663
1979, 1664, 1665, 1744
1980, 1744, 1743, 1664
1981, 1665, 1666, 1745
1982, 1745, 1744, 1665
1983, 1666, 1667, 1746
1984, 1746, 1745, 1666
1985, 1667, 1668, 1747
1986, 1747, 1746, 1667
1987, 1668, 1669, 1748
1988, 1748, 1747, 1668
1989, 1669, 1670, 1749
1990, 1749, 1748, 1669
1991, 1670, 1671, 1750
1992, 1750, 1749, 1670
1993, 1671, 1672, 1751
1994, 1751, 1750, 1671
1995, 1672, 1673, 1752
1996, 1752, 1751, 1672
1997, 1673, 1674, 1753
1998, 1753, 1752, 1673
1999, 1674, 1675, 1754
2000, 1754, 1753, 1674
2001, 1675, 1676, 1755
2002, 1755, 1754, 1675
2003, 1676, 1677, 1756
2004, 1756, 1755, 1676
2005, 1677, 1678, 1757
2006, 1757, 1756, 1677
2007, 1678, 1679, 1758
2008, 1758, 1757, 1678
2009, 1679, 1680, 1759
2010, 1759, 1758, 1679
2011, 1680, 1681, 1760
2012, 1760, 1759, 1680
2013, 1681, 1682, 1761
2014, 1761, 1760, 1681
2015, 1682, 1683, 1762
2016, 1762, 1761, 1682
2017, 1683, 1684, 1763
2018, 1763, 1762, 1683
2019, 1684, 1685, 1764
2020, 1764, 1763, 1684
2021, 1685, 1686, 1765
2022, 1765, 1764, 1685
2023, 1686, 1687, 1766
2024, 1766, 1765, 1686
2025, 1687, 1688, 1767
2026, 1767, 1766, 1687
2027, 1688, 1689, 1768
2028, 1768, 1767, 1688
2029, 1689, 1690, 1769
2030, 1769, 1768, 1689
2031, 1690, 1691, 1770
2032, 1770, 1769, 1690
2033, 1691, 1692, 1771
2034, 1771, 1770, 1691
2035, 1692, 1693, 1772
2036, 1772, 1771, 1692
2037, 1693, 1694, 1773
2038, 1773, 1772, 1693
2039, 1694, 1695, 1774
2040, 1774, 1773, 1694
2041, 1695, 1696, 1775
2042, 1775, 1774, 1695
2043, 1696, 1697, 1776
2044, 1776, 1775, 1696
2045, 1697, 1698, 1777
2046, 1777, 1776, 1697
2047, 1698, 1699, 1778
2048, 1778, 1777, 1698
2049, 1699, 1700, 1779
2050, 1779, 1778, 1699
2051, 1700, 1701, 1780
2052, 1780, 1779, 1700
2053, 1701, 1702, 1781
2054, 1781, 1780, 1701
2055, 1702, 1703, 1782
2056, 1782, 1781, 1702
2057, 1703, 1704, 1783
2058, 1783, 1782, 1703
2059, 1704, 1705, 1784
2060, 1784, 1783, 1704
2061, 1705, 1706, 1785
2062, 1785, 1784, 1705
2063, 1706, 1707, 1786
2064, 1786, 1785, 1706
2065, 1707, 1708, 1787
2066, 1787, 1786, 1707
2067, 1708, 1709, 1788
2068, 1788, 1787, 1708
2069, 1709, 1710, 1789
2070, 1789, 1788, 1709
2071, 1710, 1711, 1790
2072, 1790, 1789, 1710
2073, 1711, 1712, 1791
2074, 1791, 1790, 1711
2075, 1712, 1713, 1792
2076, 1792, 1791, 1712
2077, 1713, 1714, 1793
2078, 1793, 1792, 1713
2079, 1714,  275,  276
2080,  276, 1793, 1714
2081,  297, 1715, 1794
2082, 1794,  296,  297
2083, 1715, 1716, 1795
2084, 1795, 1794, 1715
2085, 1716, 1717, 1796
2086, 1796, 1795, 1716
2087, 1717, 1718, 1797
2088, 1797, 1796, 1717
2089, 1718, 1719, 1798
2090, 1798, 1797, 1718
2091, 1719, 1720, 1799
2092, 1799, 1798, 1719
2093, 1720, 1721, 1800
2094, 1800, 1799, 1720
2095, 1721, 1722, 1801
2096, 1801, 1800, 1721
2097, 1722, 1723, 1802
2098, 1802, 1801, 1722
2099, 1723, 1724, 1803
2100, 1803, 1802, 1723
2101, 1724, 1725, 1804
2102, 1804, 1803, 1724
2103, 1725, 1726, 1805
2104, 1805, 1804, 1725
2105, 1726, 1727, 1806
2106, 1806, 1805, 1726
2107, 1727, 1728, 1807
2108, 1807, 1806, 1727
2109, 1728, 1729, 1808
2110, 1808, 1807, 1728
2111, 1729, 1730, 1809
2112, 1809, 1808, 1729
2113, 1730, 1731, 1810
2114, 1810, 1809, 1730
2115, 1731, 1732, 1811
2116, 1811, 1810, 1731
2117, 1732, 1733, 1812
2118, 1812, 1811, 1732
2119, 1733, 1734, 1813
2120, 1813, 1812, 1733
2121, 1734, 1735, 1814
2122, 1814, 1813, 1734
2123, 1735, 1736, 1815
2124, 1815, 1814, 1735
2125, 1736, 1737, 1816
2126, 1816, 1815, 1736
2127, 1737, 1738, 1817
2128, 1817, 1816, 1737
2129, 1738, 1739, 1818
2130, 1818, 1817, 1738
2131, 1739, 1740, 1819
2132, 1819, 1818, 1739
2133, 1740, 1741, 1820
2134, 1820, 1819, 1740
2135, 1741, 1742, 1821
2136, 1821, 1820, 1741
2137, 1742, 1743, 1822
2138, 1822, 1821, 1742
2139, 1743, 1744, 1823
2140, 1823, 1822, 1743
2141, 1744, 1745, 1824
2142, 1824, 1823, 1744
2143, 1745, 1746, 1825
2144, 1825, 1824, 1745
2145, 1746, 1747, 1826
2146, 1826, 1825, 1746
2147, 1747, 1748, 1827
2148, 1827, 1826, 1747
2149, 1748, 1749, 1828
2150, 1828, 1827, 1748
2151, 1749, 1750, 1829
2152, 1829, 1828, 1749
2153, 1750, 1751, 1830
2154, 1830, 1829, 1750
2155, 1751, 1752, 1831
2156, 1831, 1830, 1751
2157, 1752, 1753, 1832
2158, 1832, 1831, 1752
2159, 1753, 1754, 1833
2160, 1833, 1832, 1753
2161, 1754, 1755, 1834
2162, 1834, 1833, 1754
2163, 1755, 1756, 1835
2164, 1835, 1834, 1755
2165, 1756, 1757, 1836
2166, 1836, 1835, 1756
2167, 1757, 1758, 1837
2168, 1837, 1836, 1757
2169, 1758, 1759, 1838
2170, 1838, 1837, 1758
2171, 1759, 1760, 1839
2172, 1839, 1838, 1759
2173, 1760, 1761, 1840
2174, 1840, 1839, 1760
2175, 1761, 1762, 1841
2176, 1841, 1840, 1761
2177, 1762, 1763, 1842
2178, 1842, 1841, 1762
2179, 1763, 1764, 1843
2180, 1843, 1842, 1763
2181, 1764, 1765, 1844
2182, 1844, 1843, 1764
2183, 1765, 1766, 1845
2184, 1845, 1844, 1765
2185, 1766, 1767, 1846
2186, 1846, 1845, 1766
2187, 1767, 1768, 1847
2188, 1847, 1846, 1767
2189, 1768, 1769, 1848
2190, 1848, 1847, 1768
2191, 1769, 1770, 1849
2192, 1849, 1848, 1769
2193, 1770, 1771, 1850
2194, 1850, 1849, 1770
2195, 1771, 1772, 1851
2196, 1851, 1850, 1771
2197, 1772, 1773, 1852
2198, 1852, 1851, 1772
2199, 1773, 1774, 1853
2200, 1853, 1852, 1773
2201, 1774, 1775, 1854
2202, 1854, 1853, 1774
2203, 1775, 1776, 1855
2204, 1855, 1854, 1775
2205, 1776, 1777, 1856
2206, 1856, 1855, 1776
2207, 1777, 1778, 1857
2208, 1857, 1856, 1777
2209, 1778, 1779, 1858
2210, 1858, 1857, 1778
2211, 1779, 1780, 1859
2212, 1859, 1858, 1779
2213, 1780, 1781, 1860
2214, 1860, 1859, 1780
2215, 1781, 1782, 1861
2216, 1861, 1860, 1781
2217, 1782, 1783, 1862
2218, 1862, 1861, 1782
2219, 1783, 1784, 1863
2220, 1863, 1862, 1783
2221, 1784, 1785, 1864
2222, 1864, 1863, 1784
2223, 1785, 1786, 1865
2224, 1865, 1864, 1785
2225, 1786, 1787, 1866
2226, 1866, 1865, 1786
2227, 1787, 1788, 1867
2228, 1867, 1866, 1787
2229, 1788, 1789, 1868
2230, 1868, 1867, 1788
2231, 1789, 1790, 1869
2232, 1869, 1868, 1789
2233, 1790, 1791, 1870
2234, 1870, 1869, 1790
2235, 1791, 1792, 1871
2236, 1871, 1870, 1791
2237, 1792, 1793, 1872
2238, 1872, 1871, 1792
2239, 1793,  276,  277
2240,  277, 1872, 1793
2241,  296, 1794, 1873
2242, 1873,  295,  296
2243, 1794, 1795, 1874
2244, 1874, 1873, 1794
2245, 1795, 1796, 1875
2246, 1875, 1874, 1795
2247, 1796, 1797, 1876
2248, 1876, 1875, 1796
2249, 1797, 1798, 1877
2250, 1877, 1876, 1797
2251, 1798, 1799, 1878
2252, 1878, 1877, 1798
2253, 1799, 1800, 1879
2254, 1879, 1878, 1799
2255, 1800, 1801, 1880
2256, 1880, 1879, 1800
2257, 1801, 1802, 1881
2258, 1881, 1880, 1801
2259, 1802, 1803, 1882
2260, 1882, 1881, 1802
2261, 1803, 1804, 1883
2262, 1883, 1882, 1803
2263, 1804, 1805, 1884
2264, 1884, 1883, 1804
2265, 1805, 1806, 1885
2266, 1885, 1884, 1805
2267, 1806, 1807, 1886
2268, 1886, 1885, 1806
2269, 1807, 1808, 1887
2270, 1887, 1886, 1807
2271, 1808, 1809, 1888
2272, 1888, 1887, 1808
2273, 1809, 1810, 1889
2274, 1889, 1888, 1809
2275, 1810, 1811, 1890
2276, 1890, 1889, 1810
2277, 1811, 1812, 1891
2278, 1891, 1890, 1811
2279, 1812, 1813, 1892
2280, 1892, 1891, 1812
2281, 1813, 1814, 1893
2282, 1893, 1892, 1813
2283, 1814, 1815, 1894
2284, 1894, 1893, 1814
2285, 1815, 1816, 1895
2286, 1895, 1894, 1815
2287, 1816, 1817, 1896
2288, 1896, 1895, 1816
2289, 1817, 1818, 1897
2290, 1897, 1896, 1817
2291, 1818, 1819, 1898
2292, 1898, 1897, 1818
2293, 1819, 1820, 1899
2294, 1899, 1898, 1819
2295, 1820, 1821, 1900
2296, 1900, 1899, 1820
2297, 1821, 1822, 1901
2298, 1901, 1900, 1821
2299, 1822, 1823, 1902
2300, 1902, 1901, 1822
2301, 1823, 1824, 1903
2302, 1903, 1902, 1823
2303, 1824, 1825, 1904
2304, 1904, 1903, 1824
2305, 1825, 1826, 1905
2306, 1905, 1904, 1825
2307, 1826, 1827, 1906
2308, 1906, 1905, 1826
2309, 1827, 1828, 1907
2310, 1907, 1906, 1827
2311, 1828, 1829, 1908
2312, 1908, 1907, 1828
2313, 1829, 1830, 1909
2314, 1909, 1908, 1829
2315, 1830, 1831, 1910
2316, 1910, 1909, 1830
2317, 1831, 1832, 1911
2318, 1911, 1910, 1831
2319, 1832, 1833, 1912
2320, 1912, 1911, 1832
2321, 1833, 1834, 1913
2322, 1913, 1912, 1833
2323, 1834, 1835, 1914
2324, 1914, 1913, 1834
2325, 1835, 1836, 1915
2326, 1915, 1914, 1835
2327, 1836, 1837, 1916
2328, 1916, 1915, 1836
2329, 1837, 1838, 1917
2330, 1917, 1916, 1837
2331, 1838, 1839, 1918
2332, 1918, 1917, 1838
2333, 1839, 1840, 1919
2334, 1919, 1918, 1839
2335, 1840, 1841, 1920
2336, 1920, 1919, 1840
2337, 1841, 1842, 1921
2338, 1921, 1920, 1841
2339, 1842, 1843, 1922
2340, 1922, 1921, 1842
2341, 1843, 1844, 1923
2342, 1923, 1922, 1843
2343, 1844, 1845, 1924
2344, 1924, 1923, 1844
2345, 1845, 1846, 1925
2346, 1925, 1924, 1845
2347, 1846, 1847, 1926
2348, 1926, 1925, 1846
2349, 1847, 1848, 1927
2350, 1927, 1926, 1847
2351, 1848, 1849, 1928
2352, 1928, 1927, 1848
2353, 1849, 1850, 1929
2354, 1929, 1928, 1849
2355, 1850, 1851, 1930
2356, 1930, 1929, 1850
2357, 1851, 1852, 1931
2358, 1931, 1930, 1851
2359, 1852, 1853, 1932
2360, 1932, 1931, 1852
2361, 1853, 1854, 1933
2362, 1933, 1932, 1853
2363, 1854, 1855, 1934
2364, 1934, 1933, 1854
2365, 1855, 1856, 1935
2366, 1935, 1934, 1855
2367, 1856, 1857, 1936
2368, 1936, 1935, 1856
2369, 1857, 1858, 1937
2370, 1937, 1936, 1857
2371, 1858, 1859, 1938
2372, 1938, 1937, 1858
2373, 1859, 1860, 1939
2374, 1939, 1938, 1859
2375, 1860, 1861, 1940
2376, 1940, 1939, 1860
2377, 1861, 1862, 1941
2378, 1941, 1940, 1861
2379, 1862, 1863, 1942
2380, 1942, 1941, 1862
2381, 1863, 1864, 1943
2382, 1943, 1942, 1863
2383, 1864, 1865, 1944
2384, 1944, 1943, 1864
2385, 1865, 1866, 1945
2386, 1945, 1944, 1865
2387, 1866, 1867, 1946
2388, 1946, 1945, 1866
2389, 1867, 1868, 1947
2390, 1947, 1946, 1867
2391, 1868, 1869, 1948
2392, 1948, 1947, 1868
2393, 1869, 1870, 1949
2394, 1949, 1948, 1869
2395, 1870, 1871, 1950
2396, 1950, 1949, 1870
2397, 1871, 1872, 1951
2398, 1951, 1950, 1871
2399, 1872,  277,  278
2400,  278, 1951, 1872
2401,  295, 1873, 1952
2402, 1952,  294,  295
2403, 1873, 1874, 1953
2404, 1953, 1952, 1873
2405, 1874, 1875, 1954
2406, 1954, 1953, 1874
2407, 1875, 1876, 1955
2408, 1955, 1954, 1875
2409, 1876, 1877, 1956
2410, 1956, 1955, 1876
2411, 1877, 1878, 1957
2412, 1957, 1956, 1877
2413, 1878, 1879, 1958
2414, 1958, 1957, 1878
2415, 1879, 1880, 1959
2416, 1959, 1958, 1879
2417, 1880, 1881, 1960
2418, 1960, 1959, 1880
2419, 1881, 1882, 1961
2420, 1961, 1960, 1881
2421, 1882, 1883, 1962
2422, 1962, 1961, 1882
2423, 1883, 1884, 1963
2424, 1963, 1962, 1883
2425, 1884, 1885, 1964
2426, 1964, 1963, 1884
2427, 1885, 1886, 1965
2428, 1965, 1964, 1885
2429, 1886, 1887, 1966
2430, 1966, 1965, 1886
2431, 1887, 1888, 1967
2432, 1967, 1966, 1887
2433, 1888, 1889, 1968
2434, 1968, 1967, 1888
2435, 1889, 1890, 1969
2436, 1969, 1968, 1889
2437, 1890, 1891, 1970
2438, 1970, 1969, 1890
2439, 1891, 1892, 1971
2440, 1971, 1970, 1891
2441, 1892, 1893, 1972
2442, 1972, 1971, 1892
2443, 1893, 1894, 1973
2444, 1973, 1972, 1893
2445, 1894, 1895, 1974
2446, 1974, 1973, 1894
2447, 1895, 1896, 1975
2448, 1975, 1974, 1895
2449, 1896, 1897, 1976
2450, 1976, 1975, 1896
2451, 1897, 1898, 1977
2452, 1977, 1976, 1897
2453, 1898, 1899, 1978
2454, 1978, 1977, 1898
2455, 1899, 1900, 1979
2456, 1979, 1978, 1899
2457, 1900, 1901, 1980
2458, 1980, 1979, 1900
2459, 1901, 1902, 1981
2460, 1981, 1980, 1901
2461, 1902, 1903, 1982
2462, 1982, 1981, 1902
2463, 1903, 1904, 1983
2464, 1983, 1982, 1903
2465, 1904, 1905, 1984
2466, 1984, 1983, 1904
2467, 1905, 1906, 1985
2468, 1985, 1984, 1905
2469, 1906, 1907, 1986
2470, 1986, 1985, 1906
2471, 1907, 1908, 1987
2472, 1987, 1986, 1907
2473, 1908, 1909, 1988
2474, 1988, 1987, 1908
2475, 1909, 1910, 1989
2476, 1989, 1988, 1909
2477, 1910, 1911, 1990
2478, 1990, 1989, 1910
2479, 1911, 1912, 1991
2480, 1991, 1990, 1911
2481, 1912, 1913, 1992
2482, 1992, 1991, 1912
2483, 1913, 1914, 1993
2484, 1993, 1992, 1913
2485, 1914, 1915, 1994
2486, 1994, 1993, 1914
2487, 1915, 1916, 1995
2488, 1995, 1994, 1915
2489, 1916, 1917, 1996
2490, 1996, 1995, 1916
2491, 1917, 1918, 1997
2492, 1997, 1996, 1917
2493, 1918, 1919, 1998
2494, 1998, 1997, 1918
2495, 1919, 1920, 1999
2496, 1999, 1998, 1919
2497, 1920, 1921, 2000
2498, 2000, 1999, 1920
2499, 1921, 1922, 2001
2500, 2001, 2000, 1921
2501, 1922, 1923, 2002
2502, 2002, 2001, 1922
2503, 1923, 1924, 2003
2504, 2003, 2002, 1923
2505, 1924, 1925, 2004
2506, 2004, 2003, 1924
2507, 1925, 1926, 2005
2508, 2005, 2004, 1925
2509, 1926, 1927, 2006
2510, 2006, 2005, 1926
2511, 1927, 1928, 2007
2512, 2007, 2006, 1927
2513, 1928, 1929, 2008
2514, 2008, 2007, 1928
2515, 1929, 1930, 2009
2516, 2009, 2008, 1929
2517, 1930, 1931, 2010
2518, 2010, 2009, 1930
2519, 1931, 1932, 2011
2520, 2011, 2010, 1931
2521, 1932, 1933, 2012
2522, 2012, 2011, 1932
2523, 1933, 1934, 2013
2524, 2013, 2012, 1933
2525, 1934, 1935, 2014
2526, 2014, 2013, 1934
2527, 1935, 1936, 2015
2528, 2015, 2014, 1935
2529, 1936, 1937, 2016
2530, 2016, 2015, 1936
2531, 1937, 1938, 2017
2532, 2017, 2016, 1937
2533, 1938, 1939, 2018
2534, 2018, 2017, 1938
2535, 1939, 1940, 2019
2536, 2019, 2018, 1939
2537, 1940, 1941, 2020
2538, 2020, 2019, 1940
2539, 1941, 1942, 2021
2540, 2021, 2020, 1941
2541, 1942, 1943, 2022
2542, 2022, 2021, 1942
2543, 1943, 1944, 2023
2544, 2023, 2022, 1943
2545, 1944, 1945, 2024
2546, 2024, 2023, 1944
2547, 1945, 1946, 2025
2548, 2025, 2024, 1945
2549, 1946, 1947, 2026
2550, 2026, 2025, 1946
2551, 1947, 1948, 2027
2552, 2027, 2026, 1947
2553, 1948, 1949, 2028
2554, 2028, 2027, 1948
2555, 1949, 1950, 2029
2556, 2029, 2028, 1949
2557, 1950, 1951, 2030
2558, 2030, 2029, 1950
2559, 1951,  278,  279
2560,  279, 2030, 1951
2561,  294, 1952, 2031
2562, 2031,  293,  294
2563, 1952, 1953, 2032
2564, 2032, 2031, 1952
2565, 1953, 1954, 2033
2566, 2033, 2032, 1953
2567, 1954, 1955, 2034
2568, 2034, 2033, 1954
2569, 1955, 1956, 2035
2570, 2035, 2034, 1955
2571, 1956, 1957, 2036
2572, 2036, 2035, 1956
2573, 1957, 1958, 2037
2574, 2037, 2036, 1957
2575, 1958, 1959, 2038
2576, 2038, 2037, 1958
2577, 1959, 1960, 2039
2578, 2039, 2038, 1959
2579, 1960, 1961, 2040
2580, 2040, 2039, 1960
2581, 1961, 1962, 2041
2582, 2041, 2040, 1961
2583, 1962, 1963, 2042
2584, 2042, 2041, 1962
2585, 1963, 1964, 2043
2586, 2043, 2042, 1963
2587, 1964, 1965, 2044
2588, 2044, 2043, 1964
2589, 1965, 1966, 2045
2590, 2045, 2044, 1965
2591, 1966, 1967, 2046
2592, 2046, 2045, 1966
2593, 1967, 1968, 2047
2594, 2047, 2046, 1967
2595, 1968, 1969, 2048
2596, 2048, 2047, 1968
2597, 1969, 1970, 2049
2598, 2049, 2048, 1969
2599, 1970, 1971, 2050
2600, 2050, 2049, 1970
2601, 1971, 1972, 2051
2602, 2051, 2050, 1971
2603, 1972, 1973, 2052
2604, 2052, 2051, 1972
2605, 1973, 1974, 2053
2606, 2053, 2052, 1973
2607, 1974, 1975, 2054
2608, 2054, 2053, 1974
2609, 1975, 1976, 2055
2610, 2055, 2054, 1975
2611, 1976, 1977, 2056
2612, 2056, 2055, 1976
2613, 1977, 1978, 2057
2614, 2057, 2056, 1977
2615, 1978, 1979, 2058
2616, 2058, 2057, 1978
2617, 1979, 1980, 2059
2618, 2059, 2058, 1979
2619, 1980, 1981, 2060
2620, 2060, 2059, 1980
2621, 1981, 1982, 2061
2622, 2061, 2060, 1981
2623, 1982, 1983, 2062
2624, 2062, 2061, 1982
2625, 1983, 1984, 2063
2626, 2063, 2062, 1983
2627, 1984, 1985, 2064
2628, 2064, 2063, 1984
2629, 1985, 1986, 2065
2630, 2065, 2064, 1985
2631, 1986, 1987, 2066
2632, 2066, 2065, 1986
2633, 1987, 1988, 2067
2634, 2067, 2066, 1987
2635, 1988, 1989, 2068
2636, 2068, 2067, 1988
2637, 1989, 1990, 2069
2638, 2069, 2068, 1989
2639, 1990, 1991, 2070
2640, 2070, 2069, 1990
2641, 1991, 1992, 2071
2642, 2071, 2070, 1991
2643, 1992, 1993, 2072
2644, 2072, 2071, 1992
2645, 1993, 1994, 2073
2646, 2073, 2072, 1993
2647, 1994, 1995, 2074
2648, 2074, 2073, 1994
2649, 1995, 1996, 2075
2650, 2075, 2074, 1995
2651, 1996, 1997, 2076
2652, 2076, 2075, 1996
2653, 1997, 1998, 2077
2654, 2077, 2076, 1997
2655, 1998, 1999, 2078
2656, 2078, 2077, 1998
2657, 1999, 2000, 2079
2658, 2079, 2078, 1999
2659, 2000, 2001, 2080
2660, 2080, 2079, 2000
2661, 2001, 2002, 2081
2662, 2081, 2080, 2001
2663, 2002, 2003, 2082
2664, 2082, 2081, 2002
2665, 2003, 2004, 2083
2666, 2083, 2082, 2003
2667, 2004, 2005, 2084
2668, 2084, 2083, 2004
2669, 2005, 2006, 2085
2670, 2085, 2084, 2005
2671, 2006, 2007, 2086
2672, 2086, 2085, 2006
2673, 2007, 2008, 2087
2674, 2087, 2086, 2007
2675, 2008, 2009, 2088
2676, 2088, 2087, 2008
2677, 2009, 2010, 2089
2678, 2089, 2088, 2009
2679, 2010, 2011, 2090
2680, 2090, 2089, 2010
2681, 2011, 2012, 2091
2682, 2091, 2090, 2011
2683, 2012, 2013, 2092
2684, 2092, 2091, 2012
2685, 2013, 2014, 2093
2686, 2093, 2092, 2013
2687, 2014, 2015, 2094
2688, 2094, 2093, 2014
2689, 2015, 2016, 2095
2690, 2095, 2094, 2015
2691, 2016, 2017, 2096
2692, 2096, 2095, 2016
2693, 2017, 2018, 2097
2694, 2097, 2096, 2017
2695, 2018, 2019, 2098
2696, 2098, 2097, 2018
2697, 2019, 2020, 2099
2698, 2099, 2098, 2019
2699, 2020, 2021, 2100
2700, 2100, 2099, 2020
2701, 2021, 2022, 2101
2702, 2101, 2100, 2021
2703, 2022, 2023, 2102
2704, 2102, 2101, 2022
2705, 2023, 2024, 2103
2706, 2103, 2102, 2023
2707, 2024, 2025, 2104
2708, 2104, 2103, 2024
2709, 2025, 2026, 2105
2710, 2105, 2104, 2025
2711, 2026, 2027, 2106
2712, 2106, 2105, 2026
2713, 2027, 2028, 2107
2714, 2107, 2106, 2027
2715, 2028, 2029, 2108
2716, 2108, 2107, 2028
2717, 2029, 2030, 2109
2718, 2109, 2108, 2029
2719, 2030,  279,  280
2720,  280, 2109, 2030
2721,  293, 2031, 2110
2722, 2110,  292,  293
2723, 2031, 2032, 2111
2724, 2111, 2110, 2031
2725, 2032, 2033, 2112
2726, 2112, 2111, 2032
2727, 2033, 2034, 2113
2728, 2113, 2112, 2033
2729, 2034, 2035, 2114
2730, 2114, 2113, 2034
2731, 2035, 2036, 2115
2732, 2115, 2114, 2035
2733, 2036, 2037, 2116
2734, 2116, 2115, 2036
2735, 2037, 2038, 2117
2736, 2117, 2116, 2037
2737, 2038, 2039, 2118
2738, 2118, 2117, 2038
2739, 2039, 2040, 2119
2740, 2119, 2118, 2039
2741, 2040, 2041, 2120
2742, 2120, 2119, 2040
2743, 2041, 2042, 2121
2744, 2121, 2120, 2041
2745, 2042, 2043, 2122
2746, 2122, 2121, 2042
2747, 2043, 2044, 2123
2748, 2123, 2122, 2043
2749, 2044, 2045, 2124
2750, 2124, 2123, 2044
2751, 2045, 2046, 2125
2752, 2125, 2124, 2045
2753, 2046, 2047, 2126
2754, 2126, 2125, 2046
2755, 2047, 2048, 2127
2756, 2127, 2126, 2047
2757, 2048, 2049, 2128
2758, 2128, 2127, 2048
2759, 2049, 2050, 2129
2760, 2129, 2128, 2049
2761, 2050, 2051, 2130
2762, 2130, 2129, 2050
2763, 2051, 2052, 2131
2764, 2131, 2130, 2051
2765, 2052, 2053, 2132
2766, 2132, 2131, 2052
2767, 2053, 2054, 2133
2768, 2133, 2132, 2053
2769, 2054, 2055, 2134
2770, 2134, 2133, 2054
2771, 2055, 2056, 2135
2772, 2135, 2134, 2055
2773, 2056, 2057, 2136
2774, 2136, 2135, 2056
2775, 2057, 2058, 2137
2776, 2137, 2136, 2057
2777, 2058, 2059, 2138
2778, 2138, 2137, 2058
2779, 2059, 2060, 2139
2780, 2139, 2138, 2059
2781, 2060, 2061, 2140
2782, 2140, 2139, 2060
2783, 2061, 2062, 2141
2784, 2141, 2140, 2061
2785, 2062, 2063, 2142
2786, 2142, 2141, 2062
2787, 2063, 2064, 2143
2788, 2143, 2142, 2063
2789, 2064, 2065, 2144
2790, 2144, 2143, 2064
2791, 2065, 2066, 2145
2792, 2145, 2144, 2065
2793, 2066, 2067, 2146
2794, 2146, 2145, 2066
2795, 2067, 2068, 2147
2796, 2147, 2146, 2067
2797, 2068, 2069, 2148
2798, 2148, 2147, 2068
2799, 2069, 2070, 2149
2800, 2149, 2148, 2069
2801, 2070, 2071, 2150
2802, 2150, 2149, 2070
2803, 2071, 2072, 2151
2804, 2151, 2150, 2071
2805, 2072, 2073, 2152
2806, 2152, 2151, 2072
2807, 2073, 2074, 2153
2808, 2153, 2152, 2073
2809, 2074, 2075, 2154
2810, 2154, 2153, 2074
2811, 2075, 2076, 2155
2812, 2155, 2154, 2075
2813, 2076, 2077, 2156
2814, 2156, 2155, 2076
2815, 2077, 2078, 2157
2816, 2157, 2156, 2077
2817, 2078, 2079, 2158
2818, 2158, 2157, 2078
2819, 2079, 2080, 2159
2820, 2159, 2158, 2079
2821, 2080, 2081, 2160
2822, 2160, 2159, 2080
2823, 2081, 2082, 2161
2824, 2161, 2160, 2081
2825, 2082, 2083, 2162
2826, 2162, 2161, 2082
2827, 2083, 2084, 2163
2828, 2163, 2162, 2083
2829, 2084, 2085, 2164
2830, 2164, 2163, 2084
2831, 2085, 2086, 2165
2832, 2165, 2164, 2085
2833, 2086, 2087, 2166
2834, 2166, 2165, 2086
2835, 2087, 2088, 2167
2836, 2167, 2166, 2087
2837, 2088, 2089, 2168
2838, 2168, 2167, 2088
2839, 2089, 2090, 2169
2840, 2169, 2168, 2089
2841, 2090, 2091, 2170
2842, 2170, 2169, 2090
2843, 2091, 2092, 2171
2844, 2171, 2170, 2091
2845, 2092, 2093, 2172
2846, 2172, 2171, 2092
2847, 2093, 2094, 2173
2848, 2173, 2172, 2093
2849, 2094, 2095, 2174
2850, 2174, 2173, 2094
2851, 2095, 2096, 2175
2852, 2175, 2174, 2095
2853, 2096, 2097, 2176
2854, 2176, 2175, 2096
2855, 2097, 2098, 2177
2856, 2177, 2176, 2097
2857, 2098, 2099, 2178
2858, 2178, 2177, 2098
2859, 2099, 2100, 2179
2860, 2179, 2178, 2099
2861, 2100, 2101, 2180
2862, 2180, 2179, 2100
2863, 2101, 2102, 2181
2864, 2181, 2180, 2101
2865, 2102, 2103, 2182
2866, 2182, 2181, 2102
2867, 2103, 2104, 2183
2868, 2183, 2182, 2103
2869, 2104, 2105, 2184
2870, 2184, 2183, 2104
2871, 2105, 2106, 2185
2872, 2185, 2184, 2105
2873, 2106, 2107, 2186
2874, 2186, 2185, 2106
2875, 2107, 2108, 2187
2876, 2187, 2186, 2107
2877, 2108, 2109, 2188
2878, 2188, 2187, 2108
2879, 2109,  280,  281
2880,  281, 2188, 2109
2881,  292, 2110, 2189
2882, 2189,  291,  292
2883, 2110, 2111, 2190
2884, 2190, 2189, 2110
2885, 2111, 2112, 2191
2886, 2191, 2190, 2111
2887, 2112, 2113, 2192
2888, 2192, 2191, 2112
2889, 2113, 2114, 2193
2890, 2193, 2192, 2113
2891, 2114, 2115, 2194
2892, 2194, 2193, 2114
2893, 2115, 2116, 2195
2894, 2195, 2194, 2115
2895, 2116, 2117, 2196
2896, 2196, 2195, 2116
2897, 2117, 2118, 2197
2898, 2197, 2196, 2117
2899, 2118, 2119, 2198
2900, 2198, 2197, 2118
2901, 2119, 2120, 2199
2902, 2199, 2198, 2119
2903, 2120, 2121, 2200
2904, 2200, 2199, 2120
2905, 2121, 2122, 2201
2906, 2201, 2200, 2121
2907, 2122, 2123, 2202
2908, 2202, 2201, 2122
2909, 2123, 2124, 2203
2910, 2203, 2202, 2123
2911, 2124, 2125, 2204
2912, 2204, 2203, 2124
2913, 2125, 2126, 2205
2914, 2205, 2204, 2125
2915, 2126, 2127, 2206
2916, 2206, 2205, 2126
2917, 2127, 2128, 2207
2918, 2207, 2206, 2127
2919, 2128, 2129, 2208
2920, 2208, 2207, 2128
2921, 2129, 2130, 2209
2922, 2209, 2208, 2129
2923, 2130, 2131, 2210
2924, 2210, 2209, 2130
2925, 2131, 2132, 2211
2926, 2211, 2210, 2131
2927, 2132, 2133, 2212
2928, 2212, 2211, 2132
2929, 2133, 2134, 2213
2930, 2213, 2212, 2133
2931, 2134, 2135, 2214
2932, 2214, 2213, 2134
2933, 2135, 2136, 2215
2934, 2215, 2214, 2135
2935, 2136, 2137, 2216
2936, 2216, 2215, 2136
2937, 2137, 2138, 2217
2938, 2217, 2216, 2137
2939, 2138, 2139, 2218
2940, 2218, 2217, 2138
2941, 2139, 2140, 2219
2942, 2219, 2218, 2139
2943, 2140, 2141, 2220
2944, 2220, 2219, 2140
2945, 2141, 2142, 2221
2946, 2221, 2220, 2141
2947, 2142, 2143, 2222
2948, 2222, 2221, 2142
2949, 2143, 2144, 2223
2950, 2223, 2222, 2143
2951, 2144, 2145, 2224
2952, 2224, 2223, 2144
2953, 2145, 2146, 2225
2954, 2225, 2224, 2145
2955, 2146, 2147, 2226
2956, 2226, 2225, 2146
2957, 2147, 2148, 2227
2958, 2227, 2226, 2147
2959, 2148, 2149, 2228
2960, 2228, 2227, 2148
2961, 2149, 2150, 2229
2962, 2229, 2228, 2149
2963, 2150, 2151, 2230
2964, 2230, 2229, 2150
2965, 2151, 2152, 2231
2966, 2231, 2230, 2151
2967, 2152, 2153, 2232
2968, 2232, 2231, 2152
2969, 2153, 2154, 2233
2970, 2233, 2232, 2153
2971, 2154, 2155, 2234
2972, 2234, 2233, 2154
2973, 2155, 2156, 2235
2974, 2235, 2234, 2155
2975, 2156, 2157, 2236
2976, 2236, 2235, 2156
2977, 2157, 2158, 2237
2978, 2237, 2236, 2157
2979, 2158, 2159, 2238
2980, 2238, 2237, 2158
2981, 2159, 2160, 2239
2982, 2239, 2238, 2159
2983, 2160, 2161, 2240
2984, 2240, 2239, 2160
2985, 2161, 2162, 2241
2986, 2241, 2240, 2161
2987, 2162, 2163, 2242
2988, 2242, 2241, 2162
2989, 2163, 2164, 2243
2990, 2243, 2242, 2163
2991, 2164, 2165, 2244
2992, 2244, 2243, 2164
2993, 2165, 2166, 2245
2994, 2245, 2244, 2165
2995, 2166, 2167, 2246
2996, 2246, 2245, 2166
2997, 2167, 2168, 2247
2998, 2247, 2246, 2167
2999, 2168, 2169, 2248
3000, 2248, 2247, 2168
3001, 2169, 2170, 2249
3002, 2249, 2248, 2169
3003, 2170, 2171, 2250
3004, 2250, 2249, 2170
3005, 2171, 2172, 2251
3006, 2251, 2250, 2171
3007, 2172, 2173, 2252
3008, 2252, 2251, 2172
3009, 2173, 2174, 2253
3010, 2253, 2252, 2173
3011, 2174, 2175, 2254
3012, 2254, 2253, 2174
3013, 2175, 2176, 2255
3014, 2255, 2254, 2175
3015, 2176, 2177, 2256
3016, 2256, 2255, 2176
3017, 2177, 2178, 2257
3018, 2257, 2256, 2177
3019, 2178, 2179, 2258
3020, 2258, 2257, 2178
3021, 2179, 2180, 2259
3022, 2259, 2258, 2179
3023, 2180, 2181, 2260
3024, 2260, 2259, 2180
3025, 2181, 2182, 2261
3026, 2261, 2260, 2181
3027, 2182, 2183, 2262
3028, 2262, 2261, 2182
3029, 2183, 2184, 2263
3030, 2263, 2262, 2183
3031, 2184, 2185, 2264
3032, 2264, 2263, 2184
3033, 2185, 2186, 2265
3034, 2265, 2264, 2185
3035, 2186, 2187, 2266
3036, 2266, 2265, 2186
3037, 2187, 2188, 2267
3038, 2267, 2266, 2187
3039, 2188,  281,  282
3040,  282, 2267, 2188
3041,  291, 2189, 2268
3042, 2268,  290,  291
3043, 2189, 2190, 2269
3044, 2269, 2268, 2189
3045, 2190, 2191, 2270
3046, 2270, 2269, 2190
3047, 2191, 2192, 2271
3048, 2271, 2270, 2191
3049, 2192, 2193, 2272
3050, 2272, 2271, 2192
3051, 2193, 2194, 2273
3052, 2273, 2272, 2193
3053, 2194, 2195, 2274
3054, 2274, 2273, 2194
3055, 2195, 2196, 2275
3056, 2275, 2274, 2195
3057, 2196, 2197, 2276
3058, 2276, 2275, 2196
3059, 2197, 2198, 2277
3060, 2277, 2276, 2197
3061, 2198, 2199, 2278
3062, 2278, 2277, 2198
3063, 2199, 2200, 2279
3064, 2279, 2278, 2199
3065, 2200, 2201, 2280
3066, 2280, 2279, 2200
3067, 2201, 2202, 2281
3068, 2281, 2280, 2201
3069, 2202, 2203, 2282
3070, 2282, 2281, 2202
3071, 2203, 2204, 2283
3072, 2283, 2282, 2203
3073, 2204, 2205, 2284
3074, 2284, 2283, 2204
3075, 2205, 2206, 2285
3076, 2285, 2284, 2205
3077, 2206, 2207, 2286
3078, 2286, 2285, 2206
3079, 2207, 2208, 2287
3080, 2287, 2286, 2207
3081, 2208, 2209, 2288
3082, 2288, 2287, 2208
3083, 2209, 2210, 2289
3084, 2289, 2288, 2209
3085, 2210, 2211, 2290
3086, 2290, 2289, 2210
3087, 2211, 2212, 2291
3088, 2291, 2290, 2211
3089, 2212, 2213, 2292
3090, 2292, 2291, 2212
3091, 2213, 2214, 2293
3092, 2293, 2292, 2213
3093, 2214, 2215, 2294
3094, 2294, 2293, 2214
3095, 2215, 2216, 2295
3096, 2295, 2294, 2215
3097, 2216, 2217, 2296
3098, 2296, 2295, 2216
3099, 2217, 2218, 2297
3100, 2297, 2296, 2217
3101, 2218, 2219, 2298
3102, 2298, 2297, 2218
3103, 2219, 2220, 2299
3104, 2299, 2298, 2219
3105, 2220, 2221, 2300
3106, 2300, 2299, 2220
3107, 2221, 2222, 2301
3108, 2301, 2300, 2221
3109, 2222, 2223, 2302
3110, 2302, 2301, 2222
3111, 2223, 2224, 2303
3112, 2303, 2302, 2223
3113, 2224, 2225, 2304
3114, 2304, 2303, 2224
3115, 2225, 2226, 2305
3116, 2305, 2304, 2225
3117, 2226, 2227, 2306
3118, 2306, 2305, 2226
3119, 2227, 2228, 2307
3120, 2307, 2306, 2227
3121, 2228, 2229, 2308
3122, 2308, 2307, 2228
3123, 2229, 2230, 2309
3124, 2309, 2308, 2229
3125, 2230, 2231, 2310
3126, 2310, 2309, 2230
3127, 2231, 2232, 2311
3128, 2311, 2310, 2231
3129, 2232, 2233, 2312
3130, 2312, 2311, 2232
3131, 2233, 2234, 2313
3132, 2313, 2312, 2233
3133, 2234, 2235, 2314
3134, 2314, 2313, 2234
3135, 2235, 2236, 2315
3136, 2315, 2314, 2235
3137, 2236, 2237, 2316
3138, 2316, 2315, 2236
3139, 2237, 2238, 2317
3140, 2317, 2316, 2237
3141, 2238, 2239, 2318
3142, 2318, 2317, 2238
3143, 2239, 2240, 2319
3144, 2319, 2318, 2239
3145, 2240, 2241, 2320
3146, 2320, 2319, 2240
3147, 2241, 2242, 2321
3148, 2321, 2320, 2241
3149, 2242, 2243, 2322
3150, 2322, 2321, 2242
3151, 2243, 2244, 2323
3152, 2323, 2322, 2243
3153, 2244, 2245, 2324
3154, 2324, 2323, 2244
3155, 2245, 2246, 2325
3156, 2325, 2324, 2245
3157, 2246, 2247, 2326
3158, 2326, 2325, 2246
3159, 2247, 2248, 2327
3160, 2327, 2326, 2247
3161, 2248, 2249, 2328
3162, 2328, 2327, 2248
3163, 2249, 2250, 2329
3164, 2329, 2328, 2249
3165, 2250, 2251, 2330
3166, 2330, 2329, 2250
3167, 2251, 2252, 2331
3168, 2331, 2330, 2251
3169, 2252, 2253, 2332
3170, 2332, 2331, 2252
3171, 2253, 2254, 2333
3172, 2333, 2332, 2253
3173, 2254, 2255, 2334
3174, 2334, 2333, 2254
3175, 2255, 2256, 2335
3176, 2335, 2334, 2255
3177, 2256, 2257, 2336
3178, 2336, 2335, 2256
3179, 2257, 2258, 2337
3180, 2337, 2336, 2257
3181, 2258, 2259, 2338
3182, 2338, 2337, 2258
3183, 2259, 2260, 2339
3184, 2339, 2338, 2259
3185, 2260, 2261, 2340
3186, 2340, 2339, 2260
3187, 2261, 2262, 2341
3188, 2341, 2340, 2261
3189, 2262, 2263, 2342
3190, 2342, 2341, 2262
3191, 2263, 2264, 2343
3192, 2343, 2342, 2263
3193, 2264, 2265, 2344
3194, 2344, 2343, 2264
3195, 2265, 2266, 2345
3196, 2345, 2344, 2265
3197, 2266, 2267, 2346
3198, 2346, 2345, 2266
3199, 2267,  282,  283
3200,  283, 2346, 2267
3201,  290, 2268, 2347
3202, 2347,  289,  290
3203, 2268, 2269, 2348
3204, 2348, 2347, 2268
3205, 2269, 2270, 2349
3206, 2349, 2348, 2269
3207, 2270, 2271, 2350
3208, 2350, 2349, 2270
3209, 2271, 2272, 2351
3210, 2351, 2350, 2271
3211, 2272, 2273, 2352
3212, 2352, 2351, 2272
3213, 2273, 2274, 2353
3214, 2353, 2352, 2273
3215, 2274, 2275, 2354
3216, 2354, 2353, 2274
3217, 2275, 2276, 2355
3218, 2355, 2354, 2275
3219, 2276, 2277, 2356
3220, 2356, 2355, 2276
3221, 2277, 2278, 2357
3222, 2357, 2356, 2277
3223, 2278, 2279, 2358
3224, 2358, 2357, 2278
3225, 2279, 2280, 2359
3226, 2359, 2358, 2279
3227, 2280, 2281, 2360
3228, 2360, 2359, 2280
3229, 2281, 2282, 2361
3230, 2361, 2360, 2281
3231, 2282, 2283, 2362
3232, 2362, 2361, 2282
3233, 2283, 2284, 2363
3234, 2363, 2362, 2283
3235, 2284, 2285, 2364
3236, 2364, 2363, 2284
3237, 2285, 2286, 2365
3238, 2365, 2364, 2285
3239, 2286, 2287, 2366
3240, 2366, 2365, 2286
3241, 2287, 2288, 2367
3242, 2367, 2366, 2287
3243, 2288, 2289, 2368
3244, 2368, 2367, 2288
3245, 2289, 2290, 2369
3246, 2369, 2368, 2289
3247, 2290, 2291, 2370
3248, 2370, 2369, 2290
3249, 2291, 2292, 2371
3250, 2371, 2370, 2291
3251, 2292, 2293, 2372
3252, 2372, 2371, 2292
3253, 2293, 2294, 2373
3254, 2373, 2372, 2293
3255, 2294, 2295, 2374
3256, 2374, 2373, 2294
3257, 2295, 2296, 2375
3258, 2375, 2374, 2295
3259, 2296, 2297, 2376
3260, 2376, 2375, 2296
3261, 2297, 2298, 2377
3262, 2377, 2376, 2297
3263, 2298, 2299, 2378
3264, 2378, 2377, 2298
3265, 2299, 2300, 2379
3266, 2379, 2378, 2299
3267, 2300, 2301, 2380
3268, 2380, 2379, 2300
3269, 2301, 2302, 2381
3270, 2381, 2380, 2301
3271, 2302, 2303, 2382
3272, 2382, 2381, 2302
3273, 2303, 2304, 2383
3274, 2383, 2382, 2303
3275, 2304, 2305, 2384
3276, 2384, 2383, 2304
3277, 2305, 2306, 2385
3278, 2385, 2384, 2305
3279, 2306, 2307, 2386
3280, 2386, 2385, 2306
3281, 2307, 2308, 2387
3282, 2387, 2386, 2307
3283, 2308, 2309, 2388
3284, 2388, 2387, 2308
3285, 2309, 2310, 2389
3286, 2389, 2388, 2309
3287, 2310, 2311, 2390
3288, 2390, 2389, 2310
3289, 2311, 2312, 2391
3290, 2391, 2390, 2311
3291, 2312, 2313, 2392
3292, 2392, 2391, 2312
3293, 2313, 2314, 2393
3294, 2393, 2392, 2313
3295, 2314, 2315, 2394
3296, 2394, 2393, 2314
3297, 2315, 2316, 2395
3298, 2395, 2394, 2315
3299, 2316, 2317, 2396
3300, 2396, 2395, 2316
3301, 2317, 2318, 2397
3302, 2397, 2396, 2317
3303, 2318, 2319, 2398
3304, 2398, 2397, 2318
3305, 2319, 2320, 2399
3306, 2399, 2398, 2319
3307, 2320, 2321, 2400
3308, 2400, 2399, 2320
3309, 2321, 2322, 2401
3310, 2401, 2400, 2321
3311, 2322, 2323, 2402
3312, 2402, 2401, 2322
3313, 2323, 2324, 2403
3314, 2403, 2402, 2323
3315, 2324, 2325, 2404
3316, 2404, 2403, 2324
3317, 2325, 2326, 2405
3318, 2405, 2404, 2325
3319, 2326, 2327, 2406
3320, 2406, 2405, 2326
3321, 2327, 2328, 2407
3322, 2407, 2406, 2327
3323, 2328, 2329, 2408
3324, 2408, 2407, 2328
3325, 2329, 2330, 2409
3326, 2409, 2408, 2329
3327, 2330, 2331, 2410
3328, 2410, 2409, 2330
3329, 2331, 2332, 2411
3330, 2411, 2410, 2331
3331, 2332, 2333, 2412
3332, 2412, 2411, 2332
3333, 2333, 2334, 2413
3334, 2413, 2412, 2333
3335, 2334, 2335, 2414
3336, 2414, 2413, 2334
3337, 2335, 2336, 2415
3338, 2415, 2414, 2335
3339, 2336, 2337, 2416
3340, 2416, 2415, 2336
3341, 2337, 2338, 2417
3342, 2417, 2416, 2337
3343, 2338, 2339, 2418
3344, 2418, 2417, 2338
3345, 2339, 2340, 2419
3346, 2419, 2418, 2339
3347, 2340, 2341, 2420
3348, 2420, 2419, 2340
3349, 2341, 2342, 2421
3350, 2421, 2420, 2341
3351, 2342, 2343, 2422
3352, 2422, 2421, 2342
3353, 2343, 2344, 2423
3354, 2423, 2422, 2343
3355, 2344, 2345, 2424
3356, 2424, 2423, 2344
3357, 2345, 2346, 2425
3358, 2425, 2424, 2345
3359, 2346,  283,  284
3360,  284, 2425, 2346
3361,  289, 2347, 2426
3362, 2426,  288,  289
3363, 2347, 2348, 2427
3364, 2427, 2426, 2347
3365, 2348, 2349, 2428
3366, 2428, 2427, 2348
3367, 2349, 2350, 2429
3368, 2429, 2428, 2349
3369, 2350, 2351, 2430
3370, 2430, 2429, 2350
3371, 2351, 2352, 2431
3372, 2431, 2430, 2351
3373, 2352, 2353, 2432
3374, 2432, 2431, 2352
3375, 2353, 2354, 2433
3376, 2433, 2432, 2353
3377, 2354, 2355, 2434
3378, 2434, 2433, 2354
3379, 2355, 2356, 2435
3380, 2435, 2434, 2355
3381, 2356, 2357, 2436
3382, 2436, 2435, 2356
3383, 2357, 2358, 2437
3384, 2437, 2436, 2357
3385, 2358, 2359, 2438
3386, 2438, 2437, 2358
3387, 2359, 2360, 2439
3388, 2439, 2438, 2359
3389, 2360, 2361, 2440
3390, 2440, 2439, 2360
3391, 2361, 2362, 2441
3392, 2441, 2440, 2361
3393, 2362, 2363, 2442
3394, 2442, 2441, 2362
3395, 2363, 2364, 2443
3396, 2443, 2442, 2363
3397, 2364, 2365, 2444
3398, 2444, 2443, 2364
3399, 2365, 2366, 2445
3400, 2445, 2444, 2365
3401, 2366, 2367, 2446
3402, 2446, 2445, 2366
3403, 2367, 2368, 2447
3404, 2447, 2446, 2367
3405, 2368, 2369, 2448
3406, 2448, 2447, 2368
3407, 2369, 2370, 2449
3408, 2449, 2448, 2369
3409, 2370, 2371, 2450
3410, 2450, 2449, 2370
3411, 2371, 2372, 2451
3412, 2451, 2450, 2371
3413, 2372, 2373, 2452
3414, 2452, 2451, 2372
3415, 2373, 2374, 2453
3416, 2453, 2452, 2373
3417, 2374, 2375, 2454
3418, 2454, 2453, 2374
3419, 2375, 2376, 2455
3420, 2455, 2454, 2375
3421, 2376, 2377, 2456
3422, 2456, 2455, 2376
3423, 2377, 2378, 2457
3424, 2457, 2456, 2377
3425, 2378, 2379, 2458
3426, 2458, 2457, 2378
3427, 2379, 2380, 2459
3428, 2459, 2458, 2379
3429, 2380, 2381, 2460
3430, 2460, 2459, 2380
3431, 2381, 2382, 2461
3432, 2461, 2460, 2381
3433, 2382, 2383, 2462
3434, 2462, 2461, 2382
3435, 2383, 2384, 2463
3436, 2463, 2462, 2383
3437, 2384, 2385, 2464
3438, 2464, 2463, 2384
3439, 2385, 2386, 2465
3440, 2465, 2464, 2385
3441, 2386, 2387, 2466
3442, 2466, 2465, 2386
3443, 2387, 2388, 2467
3444, 2467, 2466, 2387
3445, 2388, 2389, 2468
3446, 2468, 2467, 2388
3447, 2389, 2390, 2469
3448, 2469, 2468, 2389
3449, 2390, 2391, 2470
3450, 2470, 2469, 2390
3451, 2391, 2392, 2471
3452, 2471, 2470, 2391
3453, 2392, 2393, 2472
3454, 2472, 2471, 2392
3455, 2393, 2394, 2473
3456, 2473, 2472, 2393
3457, 2394, 2395, 2474
3458, 2474, 2473, 2394
3459, 2395, 2396, 2475
3460, 2475, 2474, 2395
3461, 2396, 2397, 2476
3462, 2476, 2475, 2396
3463, 2397, 2398, 2477
3464, 2477, 2476, 2397
3465, 2398, 2399, 2478
3466, 2478, 2477, 2398
3467, 2399, 2400, 2479
3468, 2479, 2478, 2399
3469, 2400, 2401, 2480
3470, 2480, 2479, 2400
3471, 2401, 2402, 2481
3472, 2481, 2480, 2401
3473, 2402, 2403, 2482
3474, 2482, 2481, 2402
3475, 2403, 2404, 2483
3476, 2483, 2482, 2403
3477, 2404, 2405, 2484
3478, 2484, 2483, 2404
3479, 2405, 2406, 2485
3480, 2485, 2484, 2405
3481, 2406, 2407, 2486
3482, 2486, 2485, 2406
3483, 2407, 2408, 2487
3484, 2487, 2486, 2407
3485, 2408, 2409, 2488
3486, 2488, 2487, 2408
3487, 2409, 2410, 2489
3488, 2489, 2488, 2409
3489, 2410, 2411, 2490
3490, 2490, 2489, 2410
3491, 2411, 2412, 2491
3492, 2491, 2490, 2411
3493, 2412, 2413, 2492
3494, 2492, 2491, 2412
3495, 2413, 2414, 2493
3496, 2493, 2492, 2413
3497, 2414, 2415, 2494
3498, 2494, 2493, 2414
3499, 2415, 2416, 2495
3500, 2495, 2494, 2415
3501, 2416, 2417, 2496
3502, 2496, 2495, 2416
3503, 2417, 2418, 2497
3504, 2497, 2496, 2417
3505, 2418, 2419, 2498
3506, 2498, 2497, 2418
3507, 2419, 2420, 2499
3508, 2499, 2498, 2419
3509, 2420, 2421, 2500
3510, 2500, 2499, 2420
3511, 2421, 2422, 2501
3512, 2501, 2500, 2421
3513, 2422, 2423, 2502
3514, 2502, 2501, 2422
3515, 2423, 2424, 2503
3516, 2503, 2502, 2423
3517, 2424, 2425, 2504
3518, 2504, 2503, 2424
3519, 2425,  284,  285
3520,  285, 2504, 2425
3521,  288, 2426, 2505
3522, 2505,  287,  288
3523, 2426, 2427, 2506
3524, 2506, 2505, 2426
3525, 2427, 2428, 2507
3526, 2507, 2506, 2427
3527, 2428, 2429, 2508
3528, 2508, 2507, 2428
3529, 2429, 2430, 2509
3530, 2509, 2508, 2429
3531, 2430, 2431, 2510
3532, 2510, 2509, 2430
3533, 2431, 2432, 2511
3534, 2511, 2510, 2431
3535, 2432, 2433, 2512
3536, 2512, 2511, 2432
3537, 2433, 2434, 2513
3538, 2513, 2512, 2433
3539, 2434, 2435, 2514
3540, 2514, 2513, 2434
3541, 2435, 2436, 2515
3542, 2515, 2514, 2435
3543, 2436, 2437, 2516
3544, 2516, 2515, 2436
3545, 2437, 2438, 2517
3546, 2517, 2516, 2437
3547, 2438, 2439, 2518
3548, 2518, 2517, 2438
3549, 2439, 2440, 2519
3550, 2519, 2518, 2439
3551, 2440, 2441, 2520
3552, 2520, 2519, 2440
3553, 2441, 2442, 2521
3554, 2521, 2520, 2441
3555, 2442, 2443, 2522
3556, 2522, 2521, 2442
3557, 2443, 2444, 2523
3558, 2523, 2522, 2443
3559, 2444, 2445, 2524
3560, 2524, 2523, 2444
3561, 2445, 2446, 2525
3562, 2525, 2524, 2445
3563, 2446, 2447, 2526
3564, 2526, 2525, 2446
3565, 2447, 2448, 2527
3566, 2527, 2526, 2447
3567, 2448, 2449, 2528
3568, 2528, 2527, 2448
3569, 2449, 2450, 2529
3570, 2529, 2528, 2449
3571, 2450, 2451, 2530
3572, 2530, 2529, 2450
3573, 2451, 2452, 2531
3574, 2531, 2530, 2451
3575, 2452, 2453, 2532
3576, 2532, 2531, 2452
3577, 2453, 2454, 2533
3578, 2533, 2532, 2453
3579, 2454, 2455, 2534
3580, 2534, 2533, 2454
3581, 2455, 2456, 2535
3582, 2535, 2534, 2455
3583, 2456, 2457, 2536
3584, 2536, 2535, 2456
3585, 2457, 2458, 2537
3586, 2537, 2536, 2457
3587, 2458, 2459, 2538
3588, 2538, 2537, 2458
3589, 2459, 2460, 2539
3590, 2539, 2538, 2459
3591, 2460, 2461, 2540
3592, 2540, 2539, 2460
3593, 2461, 2462, 2541
3594, 2541, 2540, 2461
3595, 2462, 2463, 2542
3596, 2542, 2541, 2462
3597, 2463, 2464, 2543
3598, 2543, 2542, 2463
3599, 2464, 2465, 2544
3600, 2544, 2543, 2464
3601, 2465, 2466, 2545
3602, 2545, 2544, 2465
3603, 2466, 2467, 2546
3604, 2546, 2545, 2466
3605, 2467, 2468, 2547
3606, 2547, 2546, 2467
3607, 2468, 2469, 2548
3608, 2548, 2547, 2468
3609, 2469, 2470, 2549
3610, 2549, 2548, 2469
3611, 2470, 2471, 2550
3612, 2550, 2549, 2470
3613, 2471, 2472, 2551
3614, 2551, 2550, 2471
3615, 2472, 2473, 2552
3616, 2552, 2551, 2472
3617, 2473, 2474, 2553
3618, 2553, 2552, 2473
3619, 2474, 2475, 2554
3620, 2554, 2553, 2474
3621, 2475, 2476, 2555
3622, 2555, 2554, 2475
3623, 2476, 2477, 2556
3624, 2556, 2555, 2476
3625, 2477, 2478, 2557
3626, 2557, 2556, 2477
3627, 2478, 2479, 2558
3628, 2558, 2557, 2478
3629, 2479, 2480, 2559
3630, 2559, 2558, 2479
3631, 2480, 2481, 2560
3632, 2560, 2559, 2480
3633, 2481, 2482, 2561
3634, 2561, 2560, 2481
3635, 2482, 2483, 2562
3636, 2562, 2561, 2482
3637, 2483, 2484, 2563
3638, 2563, 2562, 2483
3639, 2484, 2485, 2564
3640, 2564, 2563, 2484
3641, 2485, 2486, 2565
3642, 2565, 2564, 2485
3643, 2486, 2487, 2566
3644, 2566, 2565, 2486
3645, 2487, 2488, 2567
3646, 2567, 2566, 2487
3647, 2488, 2489, 2568
3648, 2568, 2567, 2488
3649, 2489, 2490, 2569
3650, 2569, 2568, 2489
3651, 2490, 2491, 2570
3652, 2570, 2569, 2490
3653, 2491, 2492, 2571
3654, 2571, 2570, 2491
3655, 2492, 2493, 2572
3656, 2572, 2571, 2492
3657, 2493, 2494, 2573
3658, 2573, 2572, 2493
3659, 2494, 2495, 2574
3660, 2574, 2573, 2494
3661, 2495, 2496, 2575
3662, 2575, 2574, 2495
3663, 2496, 2497, 2576
3664, 2576, 2575, 2496
3665, 2497, 2498, 2577
3666, 2577, 2576, 2497
3667, 2498, 2499, 2578
3668, 2578, 2577, 2498
3669, 2499, 2500, 2579
3670, 2579, 2578, 2499
3671, 2500, 2501, 2580
3672, 2580, 2579, 2500
3673, 2501, 2502, 2581
3674, 2581, 2580, 2501
3675, 2502, 2503, 2582
3676, 2582, 2581, 2502
3677, 2503, 2504, 2583
3678, 2583, 2582, 2503
3679, 2504,  285,  286
3680,  286, 2583, 2504
3681,  287, 2505,   21
3682,   21,    1,  287
3683, 2505, 2506,   22
3684,   22,   21, 2505
3685, 2506, 2507,   23
3686,   23,   22, 2506
3687, 2507, 2508,   24
3688,   24,   23, 2507
3689, 2508, 2509,   25
3690,   25,   24, 2508
3691, 2509, 2510,   26
3692,   26,   25, 2509
3693, 2510, 2511,   27
3694,   27,   26, 2510
3695, 2511, 2512,   28
3696,   28,   27, 2511
3697, 2512, 2513,   29
3698,   29,   28, 2512
3699, 2513, 2514,   30
3700,   30,   29, 2513
3701, 2514, 2515,   31
3702,   31,   30, 2514
3703, 2515, 2516,   32
3704,   32,   31, 2515
3705, 2516, 2517,   33
3706,   33,   32, 2516
3707, 2517, 2518,   34
3708,   34,   33, 2517
3709, 2518, 2519,   35
3710,   35,   34, 2518
3711, 2519, 2520,   36
3712,   36,   35, 2519
3713, 2520, 2521,   37
3714,   37,   36, 2520
3715, 2521, 2522,   38
3716,   38,   37, 2521
3717, 2522, 2523,   39
3718,   39,   38, 2522
3719, 2523, 2524,   40
3720,   40,   39, 2523
3721, 2524, 2525,   41
3722,   41,   40, 2524
3723, 2525, 2526,   42
3724,   42,   41, 2525
3725, 2526, 2527,   43
3726,   43,   42, 2526
3727, 2527, 2528,   44
3728,   44,   43, 2527
3729, 2528, 2529,   45
3730,   45,   44, 2528
3731, 2529, 2530,   46
3732,   46,   45, 2529
3733, 2530, 2531,   47
3734,   47,   46, 2530
3735, 2531, 2532,   48
3736,   48,   47, 2531
3737, 2532, 2533,   49
3738,   49,   48, 2532
3739, 2533, 2534,   50
3740,   50,   49, 2533
3741, 2534, 2535,   51
3742,   51,   50, 2534
3743, 2535, 2536,   52
3744,   52,   51, 2535
3745, 2536, 2537,   53
3746,   53,   52, 2536
3747, 2537, 2538,   54
3748,   54,   53, 2537
3749, 2538, 2539,   55
3750,   55,   54, 2538
3751, 2539, 2540,   56
3752,   56,   55, 2539
3753, 2540, 2541,   57
3754,   57,   56, 2540
3755, 2541, 2542,   58
3756,   58,   57, 2541
3757, 2542, 2543,   59
3758,   59,   58, 2542
3759, 2543, 2544,   60
3760,   60,   59, 2543
3761, 2544, 2545,   61
3762,   61,   60, 2544
3763, 2545, 2546,   62
3764,   62,   61, 2545
3765, 2546, 2547,   63
3766,   63,   62, 2546
3767, 2547, 2548,   64
3768,   64,   63, 2547
3769, 2548, 2549,   65
3770,   65,   64, 2548
3771, 2549, 2550,   66
3772,   66,   65, 2549
3773, 2550, 2551,   67
3774,   67,   66, 2550
3775, 2551, 2552,   68
3776,   68,   67, 2551
3777, 2552, 2553,   69
3778,   69,   68, 2552
3779, 2553, 2554,   70
3780,   70,   69, 2553
3781, 2554, 2555,   71
3782,   71,   70, 2554
3783, 2555, 2556,   72
3784,   72,   71, 2555
3785, 2556, 2557,   73
3786,   73,   72, 2556
3787, 2557, 2558,   74
3788,   74,   73, 2557
3789, 2558, 2559,   75
3790,   75,   74, 2558
3791, 2559, 2560,   76
3792,   76,   75, 2559
3793, 2560, 2561,   77
3794,   77,   76, 2560
3795, 2561, 2562,   78
3796,   78,   77, 2561
3797, 2562, 2563,   79
3798,   79,   78, 2562
3799, 2563, 2564,   80
3800,   80,   79, 2563
3801, 2564, 2565,   81
3802,   81,   80, 2564
3803, 2565, 2566,   82
3804,   82,   81, 2565
3805, 2566, 2567,   83
3806,   83,   82, 2566
3807, 2567, 2568,   84
3808,   84,   83, 2567
3809, 2568, 2569,   85
3810,   85,   84, 2568
3811, 2569, 2570,   86
3812,   86,   85, 2569
3813, 2570, 2571,   87
3814,   87,   86, 2570
3815, 2571, 2572,   88
3816,   88,   87, 2571
3817, 2572, 2573,   89
3818,   89,   88, 2572
3819, 2573, 2574,   90
3820,   90,   89, 2573
3821, 2574, 2575,   91
3822,   91,   90, 2574
3823, 2575, 2576,   92
3824,   92,   91, 2575
3825, 2576, 2577,   93
3826,   93,   92, 2576
3827, 2577, 2578,   94
3828,   94,   93, 2577
3829, 2578, 2579,   95
3830,   95,   94, 2578
3831, 2579, 2580,   96
3832,   96,   95, 2579
3833, 2580, 2581,   97
3834,   97,   96, 2580
3835, 2581, 2582,   98
3836,   98,   97, 2581
3837, 2582, 2583,   99
3838,   99,   98, 2582
3839, 2583,  286,    2
3840,    2,   99, 2583
3841,    6,  271, 2584
3842, 2584,  414,    6
3843,  271,  270, 2585
3844, 2585, 2584,  271
3845,  270,  269, 2586
3846, 2586, 2585,  270
3847,  269,  268, 2587
3848, 2587, 2586,  269
3849,  268,  267, 2588
3850, 2588, 2587,  268
3851,  267,  266, 2589
3852, 2589, 2588,  267
3853,  266,  265, 2590
3854, 2590, 2589,  266
3855,  265,  264, 2591
3856, 2591, 2590,  265
3857,  264,  263, 2592
3858, 2592, 2591,  264
3859,  263,  262, 2593
3860, 2593, 2592,  263
3861,  262,  261, 2594
3862, 2594, 2593,  262
3863,  261,  260, 2595
3864, 2595, 2594,  261
3865,  260,  259, 2596
3866, 2596, 2595,  260
3867,  259,  258, 2597
3868, 2597, 2596,  259
3869,  258,  257, 2598
3870, 2598, 2597,  258
3871,  257,  256, 2599
3872, 2599, 2598,  257
3873,  256,  255, 2600
3874, 2600, 2599,  256
3875,  255,  254, 2601
3876, 2601, 2600,  255
3877,  254,  253, 2602
3878, 2602, 2601,  254
3879,  253,  252, 2603
3880, 2603, 2602,  253
3881,  252,  251, 2604
3882, 2604, 2603,  252
3883,  251,  250, 2605
3884, 2605, 2604,  251
3885,  250,  249, 2606
3886, 2606, 2605,  250
3887,  249,  248, 2607
3888, 2607, 2606,  249
3889,  248,  247, 2608
3890, 2608, 2607,  248
3891,  247,  246, 2609
3892, 2609, 2608,  247
3893,  246,  245, 2610
3894, 2610, 2609,  246
3895,  245,  244, 2611
3896, 2611, 2610,  245
3897,  244,  243, 2612
3898, 2612, 2611,  244
3899,  243,  242, 2613
3900, 2613, 2612,  243
3901,  242,  241, 2614
3902, 2614, 2613,  242
3903,  241,  240, 2615
3904, 2615, 2614,  241
3905,  240,  239, 2616
3906, 2616, 2615,  240
3907,  239,  238, 2617
3908, 2617, 2616,  239
3909,  238,  237, 2618
3910, 2618, 2617,  238
3911,  237,  236, 2619
3912, 2619, 2618,  237
3913,  236,  235, 2620
3914, 2620, 2619,  236
3915,  235,  234, 2621
3916, 2621, 2620,  235
3917,  234,  233, 2622
3918, 2622, 2621,  234
3919,  233,  232, 2623
3920, 2623, 2622,  233
3921,  232,  231, 2624
3922, 2624, 2623,  232
3923,  231,  230, 2625
3924, 2625, 2624,  231
3925,  230,  229, 2626
3926, 2626, 2625,  230
3927,  229,  228, 2627
3928, 2627, 2626,  229
3929,  228,  227, 2628
3930, 2628, 2627,  228
3931,  227,  226, 2629
3932, 2629, 2628,  227
3933,  226,  225, 2630
3934, 2630, 2629,  226
3935,  225,  224, 2631
3936, 2631, 2630,  225
3937,  224,  223, 2632
3938, 2632, 2631,  224
3939,  223,  222, 2633
3940, 2633, 2632,  223
3941,  222,  221, 2634
3942, 2634, 2633,  222
3943,  221,  220, 2635
3944, 2635, 2634,  221
3945,  220,  219, 2636
3946, 2636, 2635,  220
3947,  219,  218, 2637
3948, 2637, 2636,  219
3949,  218,  217, 2638
3950, 2638, 2637,  218
3951,  217,  216, 2639
3952, 2639, 2638,  217
3953,  216,  215, 2640
3954, 2640, 2639,  216
3955,  215,  214, 2641
3956, 2641, 2640,  215
3957,  214,  213, 2642
3958, 2642, 2641,  214
3959,  213,  212, 2643
3960, 2643, 2642,  213
3961,  212,  211, 2644
3962, 2644, 2643,  212
3963,  211,  210, 2645
3964, 2645, 2644,  211
3965,  210,  209, 2646
3966, 2646, 2645,  210
3967,  209,  208, 2647
3968, 2647, 2646,  209
3969,  208,  207, 2648
3970, 2648, 2647,  208
3971,  207,  206, 2649
3972, 2649, 2648,  207
3973,  206,  205, 2650
3974, 2650, 2649,  206
3975,  205,  204, 2651
3976, 2651, 2650,  205
3977,  204,  203, 2652
3978, 2652, 2651,  204
3979,  203,  202, 2653
3980, 2653, 2652,  203
3981,  202,  201, 2654
3982, 2654, 2653,  202
3983,  201,  200, 2655
3984, 2655, 2654,  201
3985,  200,  199, 2656
3986, 2656, 2655,  200
3987,  199,  198, 2657
3988, 2657, 2656,  199
3989,  198,  197, 2658
3990, 2658, 2657,  198
3991,  197,  196, 2659
3992, 2659, 2658,  197
3993,  196,  195, 2660
3994, 2660, 2659,  196
3995,  195,  194, 2661
3996, 2661, 2660,  195
3997,  194,  193, 2662
3998, 2662, 2661,  194
3999,  193,    5,  302
4000,  302, 2662,  193
4001,  414, 2584, 2663
4002, 2663,  413,  414
4003, 2584, 2585, 2664
4004, 2664, 2663, 2584
4005, 2585, 2586, 2665
4006, 2665, 2664, 2585
4007, 2586, 2587, 2666
4008, 2666, 2665, 2586
4009, 2587, 2588, 2667
4010, 2667, 2666, 2587
4011, 2588, 2589, 2668
4012, 2668, 2667, 2588
4013, 2589, 2590, 2669
4014, 2669, 2668, 2589
4015, 2590, 2591, 2670
4016, 2670, 2669, 2590
4017, 2591, 2592, 2671
4018, 2671, 2670, 2591
4019, 2592, 2593, 2672
4020, 2672, 2671, 2592
4021, 2593, 2594, 2673
4022, 2673, 2672, 2593
4023, 2594, 2595, 2674
4024, 2674, 2673, 2594
4025, 2595, 2596, 2675
4026, 2675, 2674, 2595
4027, 2596, 2597, 2676
4028, 2676, 2675, 2596
4029, 2597, 2598, 2677
4030, 2677, 2676, 2597
4031, 2598, 2599, 2678
4032, 2678, 2677, 2598
4033, 2599, 2600, 2679
4034, 2679, 2678, 2599
4035, 2600, 2601, 2680
4036, 2680, 2679, 2600
4037, 2601, 2602, 2681
4038, 2681, 2680, 2601
4039, 2602, 2603, 2682
4040, 2682, 2681, 2602
4041, 2603, 2604, 2683
4042, 2683, 2682, 2603
4043, 2604, 2605, 2684
4044, 2684, 2683, 2604
4045, 2605, 2606, 2685
4046, 2685, 2684, 2605
4047, 2606, 2607, 2686
4048, 2686, 2685, 2606
4049, 2607, 2608, 2687
4050, 2687, 2686, 2607
4051, 2608, 2609, 2688
4052, 2688, 2687, 2608
4053, 2609, 2610, 2689
4054, 2689, 2688, 2609
4055, 2610, 2611, 2690
4056, 2690, 2689, 2610
4057, 2611, 2612, 2691
4058, 2691, 2690, 2611
4059, 2612, 2613, 2692
4060, 2692, 2691, 2612
4061, 2613, 2614, 2693
4062, 2693, 2692, 2613
4063, 2614, 2615, 2694
4064, 2694, 2693, 2614
4065, 2615, 2616, 2695
4066, 2695, 2694, 2615
4067, 2616, 2617, 2696
4068, 2696, 2695, 2616
4069, 2617, 2618, 2697
4070, 2697, 2696, 2617
4071, 2618, 2619, 2698
4072, 2698, 2697, 2618
4073, 2619, 2620, 2699
4074, 2699, 2698, 2619
4075, 2620, 2621, 2700
4076, 2700, 2699, 2620
4077, 2621, 2622, 2701
4078, 2701, 2700, 2621
4079, 2622, 2623, 2702
4080, 2702, 2701, 2622
4081, 2623, 2624, 2703
4082, 2703, 2702, 2623
4083, 2624, 2625, 2704
4084, 2704, 2703, 2624
4085, 2625, 2626, 2705
4086, 2705, 2704, 2625
4087, 2626, 2627, 2706
4088, 2706, 2705, 2626
4089, 2627, 2628, 2707
4090, 2707, 2706, 2627
4091, 2628, 2629, 2708
4092, 2708, 2707, 2628
4093, 2629, 2630, 2709
4094, 2709, 2708, 2629
4095, 2630, 2631, 2710
4096, 2710, 2709, 2630
4097, 2631, 2632, 2711
4098, 2711, 2710, 2631
4099, 2632, 2633, 2712
4100, 2712, 2711, 2632
4101, 2633, 2634, 2713
4102, 2713, 2712, 2633
4103, 2634, 2635, 2714
4104, 2714, 2713, 2634
4105, 2635, 2636, 2715
4106, 2715, 2714, 2635
4107, 2636, 2637, 2716
4108, 2716, 2715, 2636
4109, 2637, 2638, 2717
4110, 2717, 2716, 2637
4111, 2638, 2639, 2718
4112, 2718, 2717, 2638
4113, 2639, 2640, 2719
4114, 2719, 2718, 2639
4115, 2640, 2641, 2720
4116, 2720, 2719, 2640
4117, 2641, 2642, 2721
4118, 2721, 2720, 2641
4119, 2642, 2643, 2722
4120, 2722, 2721, 2642
4121, 2643, 2644, 2723
4122, 2723, 2722, 2643
4123, 2644, 2645, 2724
4124, 2724, 2723, 2644
4125, 2645, 2646, 2725
4126, 2725, 2724, 2645
4127, 2646, 2647, 2726
4128, 2726, 2725, 2646
4129, 2647, 2648, 2727
4130, 2727, 2726, 2647
4131, 2648, 2649, 2728
4132, 2728, 2727, 2648
4133, 2649, 2650, 2729
4134, 2729, 2728, 2649
4135, 2650, 2651, 2730
4136, 2730, 2729, 2650
4137, 2651, 2652, 2731
4138, 2731, 2730, 2651
4139, 2652, 2653, 2732
4140, 2732, 2731, 2652
4141, 2653, 2654, 2733
4142, 2733, 2732, 2653
4143, 2654, 2655, 2734
4144, 2734, 2733, 2654
4145, 2655, 2656, 2735
4146, 2735, 2734, 2655
4147, 2656, 2657, 2736
4148, 2736, 2735, 2656
4149, 2657, 2658, 2737
4150, 2737, 2736, 2657
4151, 2658, 2659, 2738
4152, 2738, 2737, 2658
4153, 2659, 2660, 2739
4154, 2739, 2738, 2659
4155, 2660, 2661, 2740
4156, 2740, 2739, 2660
4157, 2661, 2662, 2741
4158, 2741, 2740, 2661
4159, 2662,  302,  303
4160,  303, 2741, 2662
4161,  413, 2663, 2742
4162, 2742,  412,  413
4163, 2663, 2664, 2743
4164, 2743, 2742, 2663
4165, 2664, 2665, 2744
4166, 2744, 2743, 2664
4167, 2665, 2666, 2745
4168, 2745, 2744, 2665
4169, 2666, 2667, 2746
4170, 2746, 2745, 2666
4171, 2667, 2668, 2747
4172, 2747, 2746, 2667
4173, 2668, 2669, 2748
4174, 2748, 2747, 2668
4175, 2669, 2670, 2749
4176, 2749, 2748, 2669
4177, 2670, 2671, 2750
4178, 2750, 2749, 2670
4179, 2671, 2672, 2751
4180, 2751, 2750, 2671
4181, 2672, 2673, 2752
4182, 2752, 2751, 2672
4183, 2673, 2674, 2753
4184, 2753, 2752, 2673
4185, 2674, 2675, 2754
4186, 2754, 2753, 2674
4187, 2675, 2676, 2755
4188, 2755, 2754, 2675
4189, 2676, 2677, 2756
4190, 2756, 2755, 2676
4191, 2677, 2678, 2757
4192, 2757, 2756, 2677
4193, 2678, 2679, 2758
4194, 2758, 2757, 2678
4195, 2679, 2680, 2759
4196, 2759, 2758, 2679
4197, 2680, 2681, 2760
4198, 2760, 2759, 2680
4199, 2681, 2682, 2761
4200, 2761, 2760, 2681
4201, 2682, 2683, 2762
4202, 2762, 2761, 2682
4203, 2683, 2684, 2763
4204, 2763, 2762, 2683
4205, 2684, 2685, 2764
4206, 2764, 2763, 2684
4207, 2685, 2686, 2765
4208, 2765, 2764, 2685
4209, 2686, 2687, 2766
4210, 2766, 2765, 2686
4211, 2687, 2688, 2767
4212, 2767, 2766, 2687
4213, 2688, 2689, 2768
4214, 2768, 2767, 2688
4215, 2689, 2690, 2769
4216, 2769, 2768, 2689
4217, 2690, 2691, 2770
4218, 2770, 2769, 2690
4219, 2691, 2692, 2771
4220, 2771, 2770, 2691
4221, 2692, 2693, 2772
4222, 2772, 2771, 2692
4223, 2693, 2694, 2773
4224, 2773, 2772, 2693
4225, 2694, 2695, 2774
4226, 2774, 2773, 2694
4227, 2695, 2696, 2775
4228, 2775, 2774, 2695
4229, 2696, 2697, 2776
4230, 2776, 2775, 2696
4231, 2697, 2698, 2777
4232, 2777, 2776, 2697
4233, 2698, 2699, 2778
4234, 2778, 2777, 2698
4235, 2699, 2700, 2779
4236, 2779, 2778, 2699
4237, 2700, 2701, 2780
4238, 2780, 2779, 2700
4239, 2701, 2702, 2781
4240, 2781, 2780, 2701
4241, 2702, 2703, 2782
4242, 2782, 2781, 2702
4243, 2703, 2704, 2783
4244, 2783, 2782, 2703
4245, 2704, 2705, 2784
4246, 2784, 2783, 2704
4247, 2705, 2706, 2785
4248, 2785, 2784, 2705
4249, 2706, 2707, 2786
4250, 2786, 2785, 2706
4251, 2707, 2708, 2787
4252, 2787, 2786, 2707
4253, 2708, 2709, 2788
4254, 2788, 2787, 2708
4255, 2709, 2710, 2789
4256, 2789, 2788, 2709
4257, 2710, 2711, 2790
4258, 2790, 2789, 2710
4259, 2711, 2712, 2791
4260, 2791, 2790, 2711
4261, 2712, 2713, 2792
4262, 2792, 2791, 2712
4263, 2713, 2714, 2793
4264, 2793, 2792, 2713
4265, 2714, 2715, 2794
4266, 2794, 2793, 2714
4267, 2715, 2716, 2795
4268, 2795, 2794, 2715
4269, 2716, 2717, 2796
4270, 2796, 2795, 2716
4271, 2717, 2718, 2797
4272, 2797, 2796, 2717
4273, 2718, 2719, 2798
4274, 2798, 2797, 2718
4275, 2719, 2720, 2799
4276, 2799, 2798, 2719
4277, 2720, 2721, 2800
4278, 2800, 2799, 2720
4279, 2721, 2722, 2801
4280, 2801, 2800, 2721
4281, 2722, 2723, 2802
4282, 2802, 2801, 2722
4283, 2723, 2724, 2803
4284, 2803, 2802, 2723
4285, 2724, 2725, 2804
4286, 2804, 2803, 2724
4287, 2725, 2726, 2805
4288, 2805, 2804, 2725
4289, 2726, 2727, 2806
4290, 2806, 2805, 2726
4291, 2727, 2728, 2807
4292, 2807, 2806, 2727
4293, 2728, 2729, 2808
4294, 2808, 2807, 2728
4295, 2729, 2730, 2809
4296, 2809, 2808, 2729
4297, 2730, 2731, 2810
4298, 2810, 2809, 2730
4299, 2731, 2732, 2811
4300, 2811, 2810, 2731
4301, 2732, 2733, 2812
4302, 2812, 2811, 2732
4303, 2733, 2734, 2813
4304, 2813, 2812, 2733
4305, 2734, 2735, 2814
4306, 2814, 2813, 2734
4307, 2735, 2736, 2815
4308, 2815, 2814, 2735
4309, 2736, 2737, 2816
4310, 2816, 2815, 2736
4311, 2737, 2738, 2817
4312, 2817, 2816, 2737
4313, 2738, 2739, 2818
4314, 2818, 2817, 2738
4315, 2739, 2740, 2819
4316, 2819, 2818, 2739
4317, 2740, 2741, 2820
4318, 2820, 2819, 2740
4319, 2741,  303,  304
4320,  304, 2820, 2741
4321,  412, 2742, 2821
4322, 2821,  411,  412
4323, 2742, 2743, 2822
4324, 2822, 2821, 2742
4325, 2743, 2744, 2823
4326, 2823, 2822, 2743
4327, 2744, 2745, 2824
4328, 2824, 2823, 2744
4329, 2745, 2746, 2825
4330, 2825, 2824, 2745
4331, 2746, 2747, 2826
4332, 2826, 2825, 2746
4333, 2747, 2748, 2827
4334, 2827, 2826, 2747
4335, 2748, 2749, 2828
4336, 2828, 2827, 2748
4337, 2749, 2750, 2829
4338, 2829, 2828, 2749
4339, 2750, 2751, 2830
4340, 2830, 2829, 2750
4341, 2751, 2752, 2831
4342, 2831, 2830, 2751
4343, 2752, 2753, 2832
4344, 2832, 2831, 2752
4345, 2753, 2754, 2833
4346, 2833, 2832, 2753
4347, 2754, 2755, 2834
4348, 2834, 2833, 2754
4349, 2755, 2756, 2835
4350, 2835, 2834, 2755
4351, 2756, 2757, 2836
4352, 2836, 2835, 2756
4353, 2757, 2758, 2837
4354, 2837, 2836, 2757
4355, 2758, 2759, 2838
4356, 2838, 2837, 2758
4357, 2759, 2760, 2839
4358, 2839, 2838, 2759
4359, 2760, 2761, 2840
4360, 2840, 2839, 2760
4361, 2761, 2762, 2841
4362, 2841, 2840, 2761
4363, 2762, 2763, 2842
4364, 2842, 2841, 2762
4365, 2763, 2764, 2843
4366, 2843, 2842, 2763
4367, 2764, 2765, 2844
4368, 2844, 2843, 2764
4369, 2765, 2766, 2845
4370, 2845, 2844, 2765
4371, 2766, 2767, 2846
4372, 2846, 2845, 2766
4373, 2767, 2768, 2847
4374, 2847, 2846, 2767
4375, 2768, 2769, 2848
4376, 2848, 2847, 2768
4377, 2769, 2770, 2849
4378, 2849, 2848, 2769
4379, 2770, 2771, 2850
4380, 2850, 2849, 2770
4381, 2771, 2772, 2851
4382, 2851, 2850, 2771
4383, 2772, 2773, 2852
4384, 2852, 2851, 2772
4385, 2773, 2774, 2853
4386, 2853, 2852, 2773
4387, 2774, 2775, 2854
4388, 2854, 2853, 2774
4389, 2775, 2776, 2855
4390, 2855, 2854, 2775
4391, 2776, 2777, 2856
4392, 2856, 2855, 2776
4393, 2777, 2778, 2857
4394, 2857, 2856, 2777
4395, 2778, 2779, 2858
4396, 2858, 2857, 2778
4397, 2779, 2780, 2859
4398, 2859, 2858, 2779
4399, 2780, 2781, 2860
4400, 2860, 2859, 2780
4401, 2781, 2782, 2861
4402, 2861, 2860, 2781
4403, 2782, 2783, 2862
4404, 2862, 2861, 2782
4405, 2783, 2784, 2863
4406, 2863, 2862, 2783
4407, 2784, 2785, 2864
4408, 2864, 2863, 2784
4409, 2785, 2786, 2865
4410, 2865, 2864, 2785
4411, 2786, 2787, 2866
4412, 2866, 2865, 2786
4413, 2787, 2788, 2867
4414, 2867, 2866, 2787
4415, 2788, 2789, 2868
4416, 2868, 2867, 2788
4417, 2789, 2790, 2869
4418, 2869, 2868, 2789
4419, 2790, 2791, 2870
4420, 2870, 2869, 2790
4421, 2791, 2792, 2871
4422, 2871, 2870, 2791
4423, 2792, 2793, 2872
4424, 2872, 2871, 2792
4425, 2793, 2794, 2873
4426, 2873, 2872, 2793
4427, 2794, 2795, 2874
4428, 2874, 2873, 2794
4429, 2795, 2796, 2875
4430, 2875, 2874, 2795
4431, 2796, 2797, 2876
4432, 2876, 2875, 2796
4433, 2797, 2798, 2877
4434, 2877, 2876, 2797
4435, 2798, 2799, 2878
4436, 2878, 2877, 2798
4437, 2799, 2800, 2879
4438, 2879, 2878, 2799
4439, 2800, 2801, 2880
4440, 2880, 2879, 2800
4441, 2801, 2802, 2881
4442, 2881, 2880, 2801
4443, 2802, 2803, 2882
4444, 2882, 2881, 2802
4445, 2803, 2804, 2883
4446, 2883, 2882, 2803
4447, 2804, 2805, 2884
4448, 2884, 2883, 2804
4449, 2805, 2806, 2885
4450, 2885, 2884, 2805
4451, 2806, 2807, 2886
4452, 2886, 2885, 2806
4453, 2807, 2808, 2887
4454, 2887, 2886, 2807
4455, 2808, 2809, 2888
4456, 2888, 2887, 2808
4457, 2809, 2810, 2889
4458, 2889, 2888, 2809
4459, 2810, 2811, 2890
4460, 2890, 2889, 2810
4461, 2811, 2812, 2891
4462, 2891, 2890, 2811
4463, 2812, 2813, 2892
4464, 2892, 2891, 2812
4465, 2813, 2814, 2893
4466, 2893, 2892, 2813
4467, 2814, 2815, 2894
4468, 2894, 2893, 2814
4469, 2815, 2816, 2895
4470, 2895, 2894, 2815
4471, 2816, 2817, 2896
4472, 2896, 2895, 2816
4473, 2817, 2818, 2897
4474, 2897, 2896, 2817
4475, 2818, 2819, 2898
4476, 2898, 2897, 2818
4477, 2819, 2820, 2899
4478, 2899, 2898, 2819
4479, 2820,  304,  305
4480,  305, 2899, 2820
4481,  411, 2821, 2900
4482, 2900,  410,  411
4483, 2821, 2822, 2901
4484, 2901, 2900, 2821
4485, 2822, 2823, 2902
4486, 2902, 2901, 2822
4487, 2823, 2824, 2903
4488, 2903, 2902, 2823
4489, 2824, 2825, 2904
4490, 2904, 2903, 2824
4491, 2825, 2826, 2905
4492, 2905, 2904, 2825
4493, 2826, 2827, 2906
4494, 2906, 2905, 2826
4495, 2827, 2828, 2907
4496, 2907, 2906, 2827
4497, 2828, 2829, 2908
4498, 2908, 2907, 2828
4499, 2829, 2830, 2909
4500, 2909, 2908, 2829
4501, 2830, 2831, 2910
4502, 2910, 2909, 2830
4503, 2831, 2832, 2911
4504, 2911, 2910, 2831
4505, 2832, 2833, 2912
4506, 2912, 2911, 2832
4507, 2833, 2834, 2913
4508, 2913, 2912, 2833
4509, 2834, 2835, 2914
4510, 2914, 2913, 2834
4511, 2835, 2836, 2915
4512, 2915, 2914, 2835
4513, 2836, 2837, 2916
4514, 2916, 2915, 2836
4515, 2837, 2838, 2917
4516, 2917, 2916, 2837
4517, 2838, 2839, 2918
4518, 2918, 2917, 2838
4519, 2839, 2840, 2919
4520, 2919, 2918, 2839
4521, 2840, 2841, 2920
4522, 2920, 2919, 2840
4523, 2841, 2842, 2921
4524, 2921, 2920, 2841
4525, 2842, 2843, 2922
4526, 2922, 2921, 2842
4527, 2843, 2844, 2923
4528, 2923, 2922, 2843
4529, 2844, 2845, 2924
4530, 2924, 2923, 2844
4531, 2845, 2846, 2925
4532, 2925, 2924, 2845
4533, 2846, 2847, 2926
4534, 2926, 2925, 2846
4535, 2847, 2848, 2927
4536, 2927, 2926, 2847
4537, 2848, 2849, 2928
4538, 2928, 2927, 2848
4539, 2849, 2850, 2929
4540, 2929, 2928, 2849
4541, 2850, 2851, 2930
4542, 2930, 2929, 2850
4543, 2851, 2852, 2931
4544, 2931, 2930, 2851
4545, 2852, 2853, 2932
4546, 2932, 2931, 2852
4547, 2853, 2854, 2933
4548, 2933, 2932, 2853
4549, 2854, 2855, 2934
4550, 2934, 2933, 2854
4551, 2855, 2856, 2935
4552, 2935, 2934, 2855
4553, 2856, 2857, 2936
4554, 2936, 2935, 2856
4555, 2857, 2858, 2937
4556, 2937, 2936, 2857
4557, 2858, 2859, 2938
4558, 2938, 2937, 2858
4559, 2859, 2860, 2939
4560, 2939, 2938, 2859
4561, 2860, 2861, 2940
4562, 2940, 2939, 2860
4563, 2861, 2862, 2941
4564, 2941, 2940, 2861
4565, 2862, 2863, 2942
4566, 2942, 2941, 2862
4567, 2863, 2864, 2943
4568, 2943, 2942, 2863
4569, 2864, 2865, 2944
4570, 2944, 2943, 2864
4571, 2865, 2866, 2945
4572, 2945, 2944, 2865
4573, 2866, 2867, 2946
4574, 2946, 2945, 2866
4575, 2867, 2868, 2947
4576, 2947, 2946, 2867
4577, 2868, 2869, 2948
4578, 2948, 2947, 2868
4579, 2869, 2870, 2949
4580, 2949, 2948, 2869
4581, 2870, 2871, 2950
4582, 2950, 2949, 2870
4583, 2871, 2872, 2951
4584, 2951, 2950, 2871
4585, 2872, 2873, 2952
4586, 2952, 2951, 2872
4587, 2873, 2874, 2953
4588, 2953, 2952, 2873
4589, 2874, 2875, 2954
4590, 2954, 2953, 2874
4591, 2875, 2876, 2955
4592, 2955, 2954, 2875
4593, 2876, 2877, 2956
4594, 2956, 2955, 2876
4595, 2877, 2878, 2957
4596, 2957, 2956, 2877
4597, 2878, 2879, 2958
4598, 2958, 2957, 2878
4599, 2879, 2880, 2959
4600, 2959, 2958, 2879
4601, 2880, 2881, 2960
4602, 2960, 2959, 2880
4603, 2881, 2882, 2961
4604, 2961, 2960, 2881
4605, 2882, 2883, 2962
4606, 2962, 2961, 2882
4607, 2883, 2884, 2963
4608, 2963, 2962, 2883
4609, 2884, 2885, 2964
4610, 2964, 2963, 2884
4611, 2885, 2886, 2965
4612, 2965, 2964, 2885
4613, 2886, 2887, 2966
4614, 2966, 2965, 2886
4615, 2887, 2888, 2967
4616, 2967, 2966, 2887
4617, 2888, 2889, 2968
4618, 2968, 2967, 2888
4619, 2889, 2890, 2969
4620, 2969, 2968, 2889
4621, 2890, 2891, 2970
4622, 2970, 2969, 2890
4623, 2891, 2892, 2971
4624, 2971, 2970, 2891
4625, 2892, 2893, 2972
4626, 2972, 2971, 2892
4627, 2893, 2894, 2973
4628, 2973, 2972, 2893
4629, 2894, 2895, 2974
4630, 2974, 2973, 2894
4631, 2895, 2896, 2975
4632, 2975, 2974, 2895
4633, 2896, 2897, 2976
4634, 2976, 2975, 2896
4635, 2897, 2898, 2977
4636, 2977, 2976, 2897
4637, 2898, 2899, 2978
4638, 2978, 2977, 2898
4639, 2899,  305,  306
4640,  306, 2978, 2899
4641,  410, 2900, 2979
4642, 2979,  409,  410
4643, 2900, 2901, 2980
4644, 2980, 2979, 2900
4645, 2901, 2902, 2981
4646, 2981, 2980, 2901
4647, 2902, 2903, 2982
4648, 2982, 2981, 2902
4649, 2903, 2904, 2983
4650, 2983, 2982, 2903
4651, 2904, 2905, 2984
4652, 2984, 2983, 2904
4653, 2905, 2906, 2985
4654, 2985, 2984, 2905
4655, 2906, 2907, 2986
4656, 2986, 2985, 2906
4657, 2907, 2908, 2987
4658, 2987, 2986, 2907
4659, 2908, 2909, 2988
4660, 2988, 2987, 2908
4661, 2909, 2910, 2989
4662, 2989, 2988, 2909
4663, 2910, 2911, 2990
4664, 2990, 2989, 2910
4665, 2911, 2912, 2991
4666, 2991, 2990, 2911
4667, 2912, 2913, 2992
4668, 2992, 2991, 2912
4669, 2913, 2914, 2993
4670, 2993, 2992, 2913
4671, 2914, 2915, 2994
4672, 2994, 2993, 2914
4673, 2915, 2916, 2995
4674, 2995, 2994, 2915
4675, 2916, 2917, 2996
4676, 2996, 2995, 2916
4677, 2917, 2918, 2997
4678, 2997, 2996, 2917
4679, 2918, 2919, 2998
4680, 2998, 2997, 2918
4681, 2919, 2920, 2999
4682, 2999, 2998, 2919
4683, 2920, 2921, 3000
4684, 3000, 2999, 2920
4685, 2921, 2922, 3001
4686, 3001, 3000, 2921
4687, 2922, 2923, 3002
4688, 3002, 3001, 2922
4689, 2923, 2924, 3003
4690, 3003, 3002, 2923
4691, 2924, 2925, 3004
4692, 3004, 3003, 2924
4693, 2925, 2926, 3005
4694, 3005, 3004, 2925
4695, 2926, 2927, 3006
4696, 3006, 3005, 2926
4697, 2927, 2928, 3007
4698, 3007, 3006, 2927
4699, 2928, 2929, 3008
4700, 3008, 3007, 2928
4701, 2929, 2930, 3009
4702, 3009, 3008, 2929
4703, 2930, 2931, 3010
4704, 3010, 3009, 2930
4705, 2931, 2932, 3011
4706, 3011, 3010, 2931
4707, 2932, 2933, 3012
4708, 3012, 3011, 2932
4709, 2933, 2934, 3013
4710, 3013, 3012, 2933
4711, 2934, 2935, 3014
4712, 3014, 3013, 2934
4713, 2935, 2936, 3015
4714, 3015, 3014, 2935
4715, 2936, 2937, 3016
4716, 3016, 3015, 2936
4717, 2937, 2938, 3017
4718, 3017, 3016, 2937
4719, 2938, 2939, 3018
4720, 3018, 3017, 2938
4721, 2939, 2940, 3019
4722, 3019, 3018, 2939
4723, 2940, 2941, 3020
4724, 3020, 3019, 2940
4725, 2941, 2942, 3021
4726, 3021, 3020, 2941
4727, 2942, 2943, 3022
4728, 3022, 3021, 2942
4729, 2943, 2944, 3023
4730, 3023, 3022, 2943
4731, 2944, 2945, 3024
4732, 3024, 3023, 2944
4733, 2945, 2946, 3025
4734, 3025, 3024, 2945
4735, 2946, 2947, 3026
4736, 3026, 3025, 2946
4737, 2947, 2948, 3027
4738, 3027, 3026, 2947
4739, 2948, 2949, 3028
4740, 3028, 3027, 2948
4741, 2949, 2950, 3029
4742, 3029, 3028, 2949
4743, 2950, 2951, 3030
4744, 3030, 3029, 2950
4745, 2951, 2952, 3031
4746, 3031, 3030, 2951
4747, 2952, 2953, 3032
4748, 3032, 3031, 2952
4749, 2953, 2954, 3033
4750, 3033, 3032, 2953
4751, 2954, 2955, 3034
4752, 3034, 3033, 2954
4753, 2955, 2956, 3035
4754, 3035, 3034, 2955
4755, 2956, 2957, 3036
4756, 3036, 3035, 2956
4757, 2957, 2958, 3037
4758, 3037, 3036, 2957
4759, 2958, 2959, 3038
4760, 3038, 3037, 2958
4761, 2959, 2960, 3039
4762, 3039, 3038, 2959
4763, 2960, 2961, 3040
4764, 3040, 3039, 2960
4765, 2961, 2962, 3041
4766, 3041, 3040, 2961
4767, 2962, 2963, 3042
4768, 3042, 3041, 2962
4769, 2963, 2964, 3043
4770, 3043, 3042, 2963
4771, 2964, 2965, 3044
4772, 3044, 3043, 2964
4773, 2965, 2966, 3045
4774, 3045, 3044, 2965
4775, 2966, 2967, 3046
4776, 3046, 3045, 2966
4777, 2967, 2968, 3047
4778, 3047, 3046, 2967
4779, 2968, 2969, 3048
4780, 3048, 3047, 2968
4781, 2969, 2970, 3049
4782, 3049, 3048, 2969
4783, 2970, 2971, 3050
4784, 3050, 3049, 2970
4785, 2971, 2972, 3051
4786, 3051, 3050, 2971
4787, 2972, 2973, 3052
4788, 3052, 3051, 2972
4789, 2973, 2974, 3053
4790, 3053, 3052, 2973
4791, 2974, 2975, 3054
4792, 3054, 3053, 2974
4793, 2975, 2976, 3055
4794, 3055, 3054, 2975
4795, 2976, 2977, 3056
4796, 3056, 3055, 2976
4797, 2977, 2978, 3057
4798, 3057, 3056, 2977
4799, 2978,  306,  307
4800,  307, 3057, 2978
4801,  409, 2979, 3058
4802, 3058,  408,  409
4803, 2979, 2980, 3059
4804, 3059, 3058, 2979
4805, 2980, 2981, 3060
4806, 3060, 3059, 2980
4807, 2981, 2982, 3061
4808, 3061, 3060, 2981
4809, 2982, 2983, 3062
4810, 3062, 3061, 2982
4811, 2983, 2984, 3063
4812, 3063, 3062, 2983
4813, 2984, 2985, 3064
4814, 3064, 3063, 2984
4815, 2985, 2986, 3065
4816, 3065, 3064, 2985
4817, 2986, 2987, 3066
4818, 3066, 3065, 2986
4819, 2987, 2988, 3067
4820, 3067, 3066, 2987
4821, 2988, 2989, 3068
4822, 3068, 3067, 2988
4823, 2989, 2990, 3069
4824, 3069, 3068, 2989
4825, 2990, 2991, 3070
4826, 3070, 3069, 2990
4827, 2991, 2992, 3071
4828, 3071, 3070, 2991
4829, 2992, 2993, 3072
4830, 3072, 3071, 2992
4831, 2993, 2994, 3073
4832, 3073, 3072, 2993
4833, 2994, 2995, 3074
4834, 3074, 3073, 2994
4835, 2995, 2996, 3075
4836, 3075, 3074, 2995
4837, 2996, 2997, 3076
4838, 3076, 3075, 2996
4839, 2997, 2998, 3077
4840, 3077, 3076, 2997
4841, 2998, 2999, 3078
4842, 3078, 3077, 2998
4843, 2999, 3000, 3079
4844, 3079, 3078, 2999
4845, 3000, 3001, 3080
4846, 3080, 3079, 3000
4847, 3001, 3002, 3081
4848, 3081, 3080, 3001
4849, 3002, 3003, 3082
4850, 3082, 3081, 3002
4851, 3003, 3004, 3083
4852, 3083, 3082, 3003
4853, 3004, 3005, 3084
4854, 3084, 3083, 3004
4855, 3005, 3006, 3085
4856, 3085, 3084, 3005
4857, 3006, 3007, 3086
4858, 3086, 3085, 3006
4859, 3007, 3008, 3087
4860, 3087, 3086, 3007
4861, 3008, 3009, 3088
4862, 3088, 3087, 3008
4863, 3009, 3010, 3089
4864, 3089, 3088, 3009
4865, 3010, 3011, 3090
4866, 3090, 3089, 3010
4867, 3011, 3012, 3091
4868, 3091, 3090, 3011
4869, 3012, 3013, 3092
4870, 3092, 3091, 3012
4871, 3013, 3014, 3093
4872, 3093, 3092, 3013
4873, 3014, 3015, 3094
4874, 3094, 3093, 3014
4875, 3015, 3016, 3095
4876, 3095, 3094, 3015
4877, 3016, 3017, 3096
4878, 3096, 3095, 3016
4879, 3017, 3018, 3097
4880, 3097, 3096, 3017
4881, 3018, 3019, 3098
4882, 3098, 3097, 3018
4883, 3019, 3020, 3099
4884, 3099, 3098, 3019
4885, 3020, 3021, 3100
4886, 3100, 3099, 3020
4887, 3021, 3022, 3101
4888, 3101, 3100, 3021
4889, 3022, 3023, 3102
4890, 3102, 3101, 3022
4891, 3023, 3024, 3103
4892, 3103, 3102, 3023
4893, 3024, 3025, 3104
4894, 3104, 3103, 3024
4895, 3025, 3026, 3105
4896, 3105, 3104, 3025
4897, 3026, 3027, 3106
4898, 3106, 3105, 3026
4899, 3027, 3028, 3107
4900, 3107, 3106, 3027
4901, 3028, 3029, 3108
4902, 3108, 3107, 3028
4903, 3029, 3030, 3109
4904, 3109, 3108, 3029
4905, 3030, 3031, 3110
4906, 3110, 3109, 3030
4907, 3031, 3032, 3111
4908, 3111, 3110, 3031
4909, 3032, 3033, 3112
4910, 3112, 3111, 3032
4911, 3033, 3034, 3113
4912, 3113, 3112, 3033
4913, 3034, 3035, 3114
4914, 3114, 3113, 3034
4915, 3035, 3036, 3115
4916, 3115, 3114, 3035
4917, 3036, 3037, 3116
4918, 3116, 3115, 3036
4919, 3037, 3038, 3117
4920, 3117, 3116, 3037
4921, 3038, 3039, 3118
4922, 3118, 3117, 3038
4923, 3039, 3040, 3119
4924, 3119, 3118, 3039
4925, 3040, 3041, 3120
4926, 3120, 3119, 3040
4927, 3041, 3042, 3121
4928, 3121, 3120, 3041
4929, 3042, 3043, 3122
4930, 3122, 3121, 3042
4931, 3043, 3044, 3123
4932, 3123, 3122, 3043
4933, 3044, 3045, 3124
4934, 3124, 3123, 3044
4935, 3045, 3046, 3125
4936, 3125, 3124, 3045
4937, 3046, 3047, 3126
4938, 3126, 3125, 3046
4939, 3047, 3048, 3127
4940, 3127, 3126, 3047
4941, 3048, 3049, 3128
4942, 3128, 3127, 3048
4943, 3049, 3050, 3129
4944, 3129, 3128, 3049
4945, 3050, 3051, 3130
4946, 3130, 3129, 3050
4947, 3051, 3052, 3131
4948, 3131, 3130, 3051
4949, 3052, 3053, 3132
4950, 3132, 3131, 3052
4951, 3053, 3054, 3133
4952, 3133, 3132, 3053
4953, 3054, 3055, 3134
4954, 3134, 3133, 3054
4955, 3055, 3056, 3135
4956, 3135, 3134, 3055
4957, 3056, 3057, 3136
4958, 3136, 3135, 3056
4959, 3057,  307,  308
4960,  308, 3136, 3057
4961,  408, 3058, 3137
4962, 3137,  407,  408
4963, 3058, 3059, 3138
4964, 3138, 3137, 3058
4965, 3059, 3060, 3139
4966, 3139, 3138, 3059
4967, 3060, 3061, 3140
4968, 3140, 3139, 3060
4969, 3061, 3062, 3141
4970, 3141, 3140, 3061
4971, 3062, 3063, 3142
4972, 3142, 3141, 3062
4973, 3063, 3064, 3143
4974, 3143, 3142, 3063
4975, 3064, 3065, 3144
4976, 3144, 3143, 3064
4977, 3065, 3066, 3145
4978, 3145, 3144, 3065
4979, 3066, 3067, 3146
4980, 3146, 3145, 3066
4981, 3067, 3068, 3147
4982, 3147, 3146, 3067
4983, 3068, 3069, 3148
4984, 3148, 3147, 3068
4985, 3069, 3070, 3149
4986, 3149, 3148, 3069
4987, 3070, 3071, 3150
4988, 3150, 3149, 3070
4989, 3071, 3072, 3151
4990, 3151, 3150, 3071
4991, 3072, 3073, 3152
4992, 3152, 3151, 3072
4993, 3073, 3074, 3153
4994, 3153, 3152, 3073
4995, 3074, 3075, 3154
4996, 3154, 3153, 3074
4997, 3075, 3076, 3155
4998, 3155, 3154, 3075
4999, 3076, 3077, 3156
5000, 3156, 3155, 3076
5001, 3077, 3078, 3157
5002, 3157, 3156, 3077
5003, 3078, 3079, 3158
5004, 3158, 3157, 3078
5005, 3079, 3080, 3159
5006, 3159, 3158, 3079
5007, 3080, 3081, 3160
5008, 3160, 3159, 3080
5009, 3081, 3082, 3161
5010, 3161, 3160, 3081
5011, 3082, 3083, 3162
5012, 3162, 3161, 3082
5013, 3083, 3084, 3163
5014, 3163, 3162, 3083
5015, 3084, 3085, 3164
5016, 3164, 3163, 3084
5017, 3085, 3086, 3165
5018, 3165, 3164, 3085
5019, 3086, 3087, 3166
5020, 3166, 3165, 3086
5021, 3087, 3088, 3167
5022, 3167, 3166, 3087
5023, 3088, 3089, 3168
5024, 3168, 3167, 3088
5025, 3089, 3090, 3169
5026, 3169, 3168, 3089
5027, 3090, 3091, 3170
5028, 3170, 3169, 3090
5029, 3091, 3092, 3171
5030, 3171, 3170, 3091
5031, 3092, 3093, 3172
5032, 3172, 3171, 3092
5033, 3093, 3094, 3173
5034, 3173, 3172, 3093
5035, 3094, 3095, 3174
5036, 3174, 3173, 3094
5037, 3095, 3096, 3175
5038, 3175, 3174, 3095
5039, 3096, 3097, 3176
5040, 3176, 3175, 3096
5041, 3097, 3098, 3177
5042, 3177, 3176, 3097
5043, 3098, 3099, 3178
5044, 3178, 3177, 3098
5045, 3099, 3100, 3179
5046, 3179, 3178, 3099
5047, 3100, 3101, 3180
5048, 3180, 3179, 3100
5049, 3101, 3102, 3181
5050, 3181, 3180, 3101
5051, 3102, 3103, 3182
5052, 3182, 3181, 3102
5053, 3103, 3104, 3183
5054, 3183, 3182, 3103
5055, 3104, 3105, 3184
5056, 3184, 3183, 3104
5057, 3105, 3106, 3185
5058, 3185, 3184, 3105
5059, 3106, 3107, 3186
5060, 3186, 3185, 3106
5061, 3107, 3108, 3187
5062, 3187, 3186, 3107
5063, 3108, 3109, 3188
5064, 3188, 3187, 3108
5065, 3109, 3110, 3189
5066, 3189, 3188, 3109
5067, 3110, 3111, 3190
5068, 3190, 3189, 3110
5069, 3111, 3112, 3191
5070, 3191, 3190, 3111
5071, 3112, 3113, 3192
5072, 3192, 3191, 3112
5073, 3113, 3114, 3193
5074, 3193, 3192, 3113
5075, 3114, 3115, 3194
5076, 3194, 3193, 3114
5077, 3115, 3116, 3195
5078, 3195, 3194, 3115
5079, 3116, 3117, 3196
5080, 3196, 3195, 3116
5081, 3117, 3118, 3197
5082, 3197, 3196, 3117
5083, 3118, 3119, 3198
5084, 3198, 3197, 3118
5085, 3119, 3120, 3199
5086, 3199, 3198, 3119
5087, 3120, 3121, 3200
5088, 3200, 3199, 3120
5089, 3121, 3122, 3201
5090, 3201, 3200, 3121
5091, 3122, 3123, 3202
5092, 3202, 3201, 3122
5093, 3123, 3124, 3203
5094, 3203, 3202, 3123
5095, 3124, 3125, 3204
5096, 3204, 3203, 3124
5097, 3125, 3126, 3205
5098, 3205, 3204, 3125
5099, 3126, 3127, 3206
5100, 3206, 3205, 3126
5101, 3127, 3128, 3207
5102, 3207, 3206, 3127
5103, 3128, 3129, 3208
5104, 3208, 3207, 3128
5105, 3129, 3130, 3209
5106, 3209, 3208, 3129
5107, 3130, 3131, 3210
5108, 3210, 3209, 3130
5109, 3131, 3132, 3211
5110, 3211, 3210, 3131
5111, 3132, 3133, 3212
5112, 3212, 3211, 3132
5113, 3133, 3134, 3213
5114, 3213, 3212, 3133
5115, 3134, 3135, 3214
5116, 3214, 3213, 3134
5117, 3135, 3136, 3215
5118, 3215, 3214, 3135
5119, 3136,  308,  309
5120,  309, 3215, 3136
5121,  407, 3137, 3216
5122, 3216,  406,  407
5123, 3137, 3138, 3217
5124, 3217, 3216, 3137
5125, 3138, 3139, 3218
5126, 3218, 3217, 3138
5127, 3139, 3140, 3219
5128, 3219, 3218, 3139
5129, 3140, 3141, 3220
5130, 3220, 3219, 3140
5131, 3141, 3142, 3221
5132, 3221, 3220, 3141
5133, 3142, 3143, 3222
5134, 3222, 3221, 3142
5135, 3143, 3144, 3223
5136, 3223, 3222, 3143
5137, 3144, 3145, 3224
5138, 3224, 3223, 3144
5139, 3145, 3146, 3225
5140, 3225, 3224, 3145
5141, 3146, 3147, 3226
5142, 3226, 3225, 3146
5143, 3147, 3148, 3227
5144, 3227, 3226, 3147
5145, 3148, 3149, 3228
5146, 3228, 3227, 3148
5147, 3149, 3150, 3229
5148, 3229, 3228, 3149
5149, 3150, 3151, 3230
5150, 3230, 3229, 3150
5151, 3151, 3152, 3231
5152, 3231, 3230, 3151
5153, 3152, 3153, 3232
5154, 3232, 3231, 3152
5155, 3153, 3154, 3233
5156, 3233, 3232, 3153
5157, 3154, 3155, 3234
5158, 3234, 3233, 3154
5159, 3155, 3156, 3235
5160, 3235, 3234, 3155
5161, 3156, 3157, 3236
5162, 3236, 3235, 3156
5163, 3157, 3158, 3237
5164, 3237, 3236, 3157
5165, 3158, 3159, 3238
5166, 3238, 3237, 3158
5167, 3159, 3160, 3239
5168, 3239, 3238, 3159
5169, 3160, 3161, 3240
5170, 3240, 3239, 3160
5171, 3161, 3162, 3241
5172, 3241, 3240, 3161
5173, 3162, 3163, 3242
5174, 3242, 3241, 3162
5175, 3163, 3164, 3243
5176, 3243, 3242, 3163
5177, 3164, 3165, 3244
5178, 3244, 3243, 3164
5179, 3165, 3166, 3245
5180, 3245, 3244, 3165
5181, 3166, 3167, 3246
5182, 3246, 3245, 3166
5183, 3167, 3168, 3247
5184, 3247, 3246, 3167
5185, 3168, 3169, 3248
5186, 3248, 3247, 3168
5187, 3169, 3170, 3249
5188, 3249, 3248, 3169
5189, 3170, 3171, 3250
5190, 3250, 3249, 3170
5191, 3171, 3172, 3251
5192, 3251, 3250, 3171
5193, 3172, 3173, 3252
5194, 3252, 3251, 3172
5195, 3173, 3174, 3253
5196, 3253, 3252, 3173
5197, 3174, 3175, 3254
5198, 3254, 3253, 3174
5199, 3175, 3176, 3255
5200, 3255, 3254, 3175
5201, 3176, 3177, 3256
5202, 3256, 3255, 3176
5203, 3177, 3178, 3257
5204, 3257, 3256, 3177
5205, 3178, 3179, 3258
5206, 3258, 3257, 3178
5207, 3179, 3180, 3259
5208, 3259, 3258, 3179
5209, 3180, 3181, 3260
5210, 3260, 3259, 3180
5211, 3181, 3182, 3261
5212, 3261, 3260, 3181
5213, 3182, 3183, 3262
5214, 3262, 3261, 3182
5215, 3183, 3184, 3263
5216, 3263, 3262, 3183
5217, 3184, 3185, 3264
5218, 3264, 3263, 3184
5219, 3185, 3186, 3265
5220, 3265, 3264, 3185
5221, 3186, 3187, 3266
5222, 3266, 3265, 3186
5223, 3187, 3188, 3267
5224, 3267, 3266, 3187
5225, 3188, 3189, 3268
5226, 3268, 3267, 3188
5227, 3189, 3190, 3269
5228, 3269, 3268, 3189
5229, 3190, 3191, 3270
5230, 3270, 3269, 3190
5231, 3191, 3192, 3271
5232, 3271, 3270, 3191
5233, 3192, 3193, 3272
5234, 3272, 3271, 3192
5235, 3193, 3194, 3273
5236, 3273, 3272, 3193
5237, 3194, 3195, 3274
5238, 3274, 3273, 3194
5239, 3195, 3196, 3275
5240, 3275, 3274, 3195
5241, 3196, 3197, 3276
5242, 3276, 3275, 3196
5243, 3197, 3198, 3277
5244, 3277, 3276, 3197
5245, 3198, 3199, 3278
5246, 3278, 3277, 3198
5247, 3199, 3200, 3279
5248, 3279, 3278, 3199
5249, 3200, 3201, 3280
5250, 3280, 3279, 3200
5251, 3201, 3202, 3281
5252, 3281, 3280, 3201
5253, 3202, 3203, 3282
5254, 3282, 3281, 3202
5255, 3203, 3204, 3283
5256, 3283, 3282, 3203
5257, 3204, 3205, 3284
5258, 3284, 3283, 3204
5259, 3205, 3206, 3285
5260, 3285, 3284, 3205
5261, 3206, 3207, 3286
5262, 3286, 3285, 3206
5263, 3207, 3208, 3287
5264, 3287, 3286, 3207
5265, 3208, 3209, 3288
5266, 3288, 3287, 3208
5267, 3209, 3210, 3289
5268, 3289, 3288, 3209
5269, 3210, 3211, 3290
5270, 3290, 3289, 3210
5271, 3211, 3212, 3291
5272, 3291, 3290, 3211
5273, 3212, 3213, 3292
5274, 3292, 3291, 3212
5275, 3213, 3214, 3293
5276, 3293, 3292, 3213
5277, 3214, 3215, 3294
5278, 3294, 3293, 3214
5279, 3215,  309,  310
5280,  310, 3294, 3215
5281,  406, 3216, 3295
5282, 3295,  405,  406
5283, 3216, 3217, 3296
5284, 3296, 3295, 3216
5285, 3217, 3218, 3297
5286, 3297, 3296, 3217
5287, 3218, 3219, 3298
5288, 3298, 3297, 3218
5289, 3219, 3220, 3299
5290, 3299, 3298, 3219
5291, 3220, 3221, 3300
5292, 3300, 3299, 3220
5293, 3221, 3222, 3301
5294, 3301, 3300, 3221
5295, 3222, 3223, 3302
5296, 3302, 3301, 3222
5297, 3223, 3224, 3303
5298, 3303, 3302, 3223
5299, 3224, 3225, 3304
5300, 3304, 3303, 3224
5301, 3225, 3226, 3305
5302, 3305, 3304, 3225
5303, 3226, 3227, 3306
5304, 3306, 3305, 3226
5305, 3227, 3228, 3307
5306, 3307, 3306, 3227
5307, 3228, 3229, 3308
5308, 3308, 3307, 3228
5309, 3229, 3230, 3309
5310, 3309, 3308, 3229
5311, 3230, 3231, 3310
5312, 3310, 3309, 3230
5313, 3231, 3232, 3311
5314, 3311, 3310, 3231
5315, 3232, 3233, 3312
5316, 3312, 3311, 3232
5317, 3233, 3234, 3313
5318, 3313, 3312, 3233
5319, 3234, 3235, 3314
5320, 3314, 3313, 3234
5321, 3235, 3236, 3315
5322, 3315, 3314, 3235
5323, 3236, 3237, 3316
5324, 3316, 3315, 3236
5325, 3237, 3238, 3317
5326, 3317, 3316, 3237
5327, 3238, 3239, 3318
5328, 3318, 3317, 3238
5329, 3239, 3240, 3319
5330, 3319, 3318, 3239
5331, 3240, 3241, 3320
5332, 3320, 3319, 3240
5333, 3241, 3242, 3321
5334, 3321, 3320, 3241
5335, 3242, 3243, 3322
5336, 3322, 3321, 3242
5337, 3243, 3244, 3323
5338, 3323, 3322, 3243
5339, 3244, 3245, 3324
5340, 3324, 3323, 3244
5341, 3245, 3246, 3325
5342, 3325, 3324, 3245
5343, 3246, 3247, 3326
5344, 3326, 3325, 3246
5345, 3247, 3248, 3327
5346, 3327, 3326, 3247
5347, 3248, 3249, 3328
5348, 3328, 3327, 3248
5349, 3249, 3250, 3329
5350, 3329, 3328, 3249
5351, 3250, 3251, 3330
5352, 3330, 3329, 3250
5353, 3251, 3252, 3331
5354, 3331, 3330, 3251
5355, 3252, 3253, 3332
5356, 3332, 3331, 3252
5357, 3253, 3254, 3333
5358, 3333, 3332, 3253
5359, 3254, 3255, 3334
5360, 3334, 3333, 3254
5361, 3255, 3256, 3335
5362, 3335, 3334, 3255
5363, 3256, 3257, 3336
5364, 3336, 3335, 3256
5365, 3257, 3258, 3337
5366, 3337, 3336, 3257
5367, 3258, 3259, 3338
5368, 3338, 3337, 3258
5369, 3259, 3260, 3339
5370, 3339, 3338, 3259
5371, 3260, 3261, 3340
5372, 3340, 3339, 3260
5373, 3261, 3262, 3341
5374, 3341, 3340, 3261
5375, 3262, 3263, 3342
5376, 3342, 3341, 3262
5377, 3263, 3264, 3343
5378, 3343, 3342, 3263
5379, 3264, 3265, 3344
5380, 3344, 3343, 3264
5381, 3265, 3266, 3345
5382, 3345, 3344, 3265
5383, 3266, 3267, 3346
5384, 3346, 3345, 3266
5385, 3267, 3268, 3347
5386, 3347, 3346, 3267
5387, 3268, 3269, 3348
5388, 3348, 3347, 3268
5389, 3269, 3270, 3349
5390, 3349, 3348, 3269
5391, 3270, 3271, 3350
5392, 3350, 3349, 3270
5393, 3271, 3272, 3351
5394, 3351, 3350, 3271
5395, 3272, 3273, 3352
5396, 3352, 3351, 3272
5397, 3273, 3274, 3353
5398, 3353, 3352, 3273
5399, 3274, 3275, 3354
5400, 3354, 3353, 3274
5401, 3275, 3276, 3355
5402, 3355, 3354, 3275
5403, 3276, 3277, 3356
5404, 3356, 3355, 3276
5405, 3277, 3278, 3357
5406, 3357, 3356, 3277
5407, 3278, 3279, 3358
5408, 3358, 3357, 3278
5409, 3279, 3280, 3359
5410, 3359, 3358, 3279
5411, 3280, 3281, 3360
5412, 3360, 3359, 3280
5413, 3281, 3282, 3361
5414, 3361, 3360, 3281
5415, 3282, 3283, 3362
5416, 3362, 3361, 3282
5417, 3283, 3284, 3363
5418, 3363, 3362, 3283
5419, 3284, 3285, 3364
5420, 3364, 3363, 3284
5421, 3285, 3286, 3365
5422, 3365, 3364, 3285
5423, 3286, 3287, 3366
5424, 3366, 3365, 3286
5425, 3287, 3288, 3367
5426, 3367, 3366, 3287
5427, 3288, 3289, 3368
5428, 3368, 3367, 3288
5429, 3289, 3290, 3369
5430, 3369, 3368, 3289
5431, 3290, 3291, 3370
5432, 3370, 3369, 3290
5433, 3291, 3292, 3371
5434, 3371, 3370, 3291
5435, 3292, 3293, 3372
5436, 3372, 3371, 3292
5437, 3293, 3294, 3373
5438, 3373, 3372, 3293
5439, 3294,  310,  311
5440,  311, 3373, 3294
5441,  405, 3295, 3374
5442, 3374,  404,  405
5443, 3295, 3296, 3375
5444, 3375, 3374, 3295
5445, 3296, 3297, 3376
5446, 3376, 3375, 3296
5447, 3297, 3298, 3377
5448, 3377, 3376, 3297
5449, 3298, 3299, 3378
5450, 3378, 3377, 3298
5451, 3299, 3300, 3379
5452, 3379, 3378, 3299
5453, 3300, 3301, 3380
5454, 3380, 3379, 3300
5455, 3301, 3302, 3381
5456, 3381, 3380, 3301
5457, 3302, 3303, 3382
5458, 3382, 3381, 3302
5459, 3303, 3304, 3383
5460, 3383, 3382, 3303
5461, 3304, 3305, 3384
5462, 3384, 3383, 3304
5463, 3305, 3306, 3385
5464, 3385, 3384, 3305
5465, 3306, 3307, 3386
5466, 3386, 3385, 3306
5467, 3307, 3308, 3387
5468, 3387, 3386, 3307
5469, 3308, 3309, 3388
5470, 3388, 3387, 3308
5471, 3309, 3310, 3389
5472, 3389, 3388, 3309
5473, 3310, 3311, 3390
5474, 3390, 3389, 3310
5475, 3311, 3312, 3391
5476, 3391, 3390, 3311
5477, 3312, 3313, 3392
5478, 3392, 3391, 3312
5479, 3313, 3314, 3393
5480, 3393, 3392, 3313
5481, 3314, 3315, 3394
5482, 3394, 3393, 3314
5483, 3315, 3316, 3395
5484, 3395, 3394, 3315
5485, 3316, 3317, 3396
5486, 3396, 3395, 3316
5487, 3317, 3318, 3397
5488, 3397, 3396, 3317
5489, 3318, 3319, 3398
5490, 3398, 3397, 3318
5491, 3319, 3320, 3399
5492, 3399, 3398, 3319
5493, 3320, 3321, 3400
5494, 3400, 3399, 3320
5495, 3321, 3322, 3401
5496, 3401, 3400, 3321
5497, 3322, 3323, 3402
5498, 3402, 3401, 3322
5499, 3323, 3324, 3403
5500, 3403, 3402, 3323
5501, 3324, 3325, 3404
5502, 3404, 3403, 3324
5503, 3325, 3326, 3405
5504, 3405, 3404, 3325
5505, 3326, 3327, 3406
5506, 3406, 3405, 3326
5507, 3327, 3328, 3407
5508, 3407, 3406, 3327
5509, 3328, 3329, 3408
5510, 3408, 3407, 3328
5511, 3329, 3330, 3409
5512, 3409, 3408, 3329
5513, 3330, 3331, 3410
5514, 3410, 3409, 3330
5515, 3331, 3332, 3411
5516, 3411, 3410, 3331
5517, 3332, 3333, 3412
5518, 3412, 3411, 3332
5519, 3333, 3334, 3413
5520, 3413, 3412, 3333
5521, 3334, 3335, 3414
5522, 3414, 3413, 3334
5523, 3335, 3336, 3415
5524, 3415, 3414, 3335
5525, 3336, 3337, 3416
5526, 3416, 3415, 3336
5527, 3337, 3338, 3417
5528, 3417, 3416, 3337
5529, 3338, 3339, 3418
5530, 3418, 3417, 3338
5531, 3339, 3340, 3419
5532, 3419, 3418, 3339
5533, 3340, 3341, 3420
5534, 3420, 3419, 3340
5535, 3341, 3342, 3421
5536, 3421, 3420, 3341
5537, 3342, 3343, 3422
5538, 3422, 3421, 3342
5539, 3343, 3344, 3423
5540, 3423, 3422, 3343
5541, 3344, 3345, 3424
5542, 3424, 3423, 3344
5543, 3345, 3346, 3425
5544, 3425, 3424, 3345
5545, 3346, 3347, 3426
5546, 3426, 3425, 3346
5547, 3347, 3348, 3427
5548, 3427, 3426, 3347
5549, 3348, 3349, 3428
5550, 3428, 3427, 3348
5551, 3349, 3350, 3429
5552, 3429, 3428, 3349
5553, 3350, 3351, 3430
5554, 3430, 3429, 3350
5555, 3351, 3352, 3431
5556, 3431, 3430, 3351
5557, 3352, 3353, 3432
5558, 3432, 3431, 3352
5559, 3353, 3354, 3433
5560, 3433, 3432, 3353
5561, 3354, 3355, 3434
5562, 3434, 3433, 3354
5563, 3355, 3356, 3435
5564, 3435, 3434, 3355
5565, 3356, 3357, 3436
5566, 3436, 3435, 3356
5567, 3357, 3358, 3437
5568, 3437, 3436, 3357
5569, 3358, 3359, 3438
5570, 3438, 3437, 3358
5571, 3359, 3360, 3439
5572, 3439, 3438, 3359
5573, 3360, 3361, 3440
5574, 3440, 3439, 3360
5575, 3361, 3362, 3441
5576, 3441, 3440, 3361
5577, 3362, 3363, 3442
5578, 3442, 3441, 3362
5579, 3363, 3364, 3443
5580, 3443, 3442, 3363
5581, 3364, 3365, 3444
5582, 3444, 3443, 3364
5583, 3365, 3366, 3445
5584, 3445, 3444, 3365
5585, 3366, 3367, 3446
5586, 3446, 3445, 3366
5587, 3367, 3368, 3447
5588, 3447, 3446, 3367
5589, 3368, 3369, 3448
5590, 3448, 3447, 3368
5591, 3369, 3370, 3449
5592, 3449, 3448, 3369
5593, 3370, 3371, 3450
5594, 3450, 3449, 3370
5595, 3371, 3372, 3451
5596, 3451, 3450, 3371
5597, 3372, 3373, 3452
5598, 3452, 3451, 3372
5599, 3373,  311,  312
5600,  312, 3452, 3373
5601,  404, 3374, 3453
5602, 3453,  403,  404
5603, 3374, 3375, 3454
5604, 3454, 3453, 3374
5605, 3375, 3376, 3455
5606, 3455, 3454, 3375
5607, 3376, 3377, 3456
5608, 3456, 3455, 3376
5609, 3377, 3378, 3457
5610, 3457, 3456, 3377
5611, 3378, 3379, 3458
5612, 3458, 3457, 3378
5613, 3379, 3380, 3459
5614, 3459, 3458, 3379
5615, 3380, 3381, 3460
5616, 3460, 3459, 3380
5617, 3381, 3382, 3461
5618, 3461, 3460, 3381
5619, 3382, 3383, 3462
5620, 3462, 3461, 3382
5621, 3383, 3384, 3463
5622, 3463, 3462, 3383
5623, 3384, 3385, 3464
5624, 3464, 3463, 3384
5625, 3385, 3386, 3465
5626, 3465, 3464, 3385
5627, 3386, 3387, 3466
5628, 3466, 3465, 3386
5629, 3387, 3388, 3467
5630, 3467, 3466, 3387
5631, 3388, 3389, 3468
5632, 3468, 3467, 3388
5633, 3389, 3390, 3469
5634, 3469, 3468, 3389
5635, 3390, 3391, 3470
5636, 3470, 3469, 3390
5637, 3391, 3392, 3471
5638, 3471, 3470, 3391
5639, 3392, 3393, 3472
5640, 3472, 3471, 3392
5641, 3393, 3394, 3473
5642, 3473, 3472, 3393
5643, 3394, 3395, 3474
5644, 3474, 3473, 3394
5645, 3395, 3396, 3475
5646, 3475, 3474, 3395
5647, 3396, 3397, 3476
5648, 3476, 3475, 3396
5649, 3397, 3398, 3477
5650, 3477, 3476, 3397
5651, 3398, 3399, 3478
5652, 3478, 3477, 3398
5653, 3399, 3400, 3479
5654, 3479, 3478, 3399
5655, 3400, 3401, 3480
5656, 3480, 3479, 3400
5657, 3401, 3402, 3481
5658, 3481, 3480, 3401
5659, 3402, 3403, 3482
5660, 3482, 3481, 3402
5661, 3403, 3404, 3483
5662, 3483, 3482, 3403
5663, 3404, 3405, 3484
5664, 3484, 3483, 3404
5665, 3405, 3406, 3485
5666, 3485, 3484, 3405
5667, 3406, 3407, 3486
5668, 3486, 3485, 3406
5669, 3407, 3408, 3487
5670, 3487, 3486, 3407
5671, 3408, 3409, 3488
5672, 3488, 3487, 3408
5673, 3409, 3410, 3489
5674, 3489, 3488, 3409
5675, 3410, 3411, 3490
5676, 3490, 3489, 3410
5677, 3411, 3412, 3491
5678, 3491, 3490, 3411
5679, 3412, 3413, 3492
5680, 3492, 3491, 3412
5681, 3413, 3414, 3493
5682, 3493, 3492, 3413
5683, 3414, 3415, 3494
5684, 3494, 3493, 3414
5685, 3415, 3416, 3495
5686, 3495, 3494, 3415
5687, 3416, 3417, 3496
5688, 3496, 3495, 3416
5689, 3417, 3418, 3497
5690, 3497, 3496, 3417
5691, 3418, 3419, 3498
5692, 3498, 3497, 3418
5693, 3419, 3420, 3499
5694, 3499, 3498, 3419
5695, 3420, 3421, 3500
5696, 3500, 3499, 3420
5697, 3421, 3422, 3501
5698, 3501, 3500, 3421
5699, 3422, 3423, 3502
5700, 3502, 3501, 3422
5701, 3423, 3424, 3503
5702, 3503, 3502, 3423
5703, 3424, 3425, 3504
5704, 3504, 3503, 3424
5705, 3425, 3426, 3505
5706, 3505, 3504, 3425
5707, 3426, 3427, 3506
5708, 3506, 3505, 3426
5709, 3427, 3428, 3507
5710, 3507, 3506, 3427
5711, 3428, 3429, 3508
5712, 3508, 3507, 3428
5713, 3429, 3430, 3509
5714, 3509, 3508, 3429
5715, 3430, 3431, 3510
5716, 3510, 3509, 3430
5717, 3431, 3432, 3511
5718, 3511, 3510, 3431
5719, 3432, 3433, 3512
5720, 3512, 3511, 3432
5721, 3433, 3434, 3513
5722, 3513, 3512, 3433
5723, 3434, 3435, 3514
5724, 3514, 3513, 3434
5725, 3435, 3436, 3515
5726, 3515, 3514, 3435
5727, 3436, 3437, 3516
5728, 3516, 3515, 3436
5729, 3437, 3438, 3517
5730, 3517, 3516, 3437
5731, 3438, 3439, 3518
5732, 3518, 3517, 3438
5733, 3439, 3440, 3519
5734, 3519, 3518, 3439
5735, 3440, 3441, 3520
5736, 3520, 3519, 3440
5737, 3441, 3442, 3521
5738, 3521, 3520, 3441
5739, 3442, 3443, 3522
5740, 3522, 3521, 3442
5741, 3443, 3444, 3523
5742, 3523, 3522, 3443
5743, 3444, 3445, 3524
5744, 3524, 3523, 3444
5745, 3445, 3446, 3525
5746, 3525, 3524, 3445
5747, 3446, 3447, 3526
5748, 3526, 3525, 3446
5749, 3447, 3448, 3527
5750, 3527, 3526, 3447
5751, 3448, 3449, 3528
5752, 3528, 3527, 3448
5753, 3449, 3450, 3529
5754, 3529, 3528, 3449
5755, 3450, 3451, 3530
5756, 3530, 3529, 3450
5757, 3451, 3452, 3531
5758, 3531, 3530, 3451
5759, 3452,  312,  313
5760,  313, 3531, 3452
5761,  403, 3453, 3532
5762, 3532,  402,  403
5763, 3453, 3454, 3533
5764, 3533, 3532, 3453
5765, 3454, 3455, 3534
5766, 3534, 3533, 3454
5767, 3455, 3456, 3535
5768, 3535, 3534, 3455
5769, 3456, 3457, 3536
5770, 3536, 3535, 3456
5771, 3457, 3458, 3537
5772, 3537, 3536, 3457
5773, 3458, 3459, 3538
5774, 3538, 3537, 3458
5775, 3459, 3460, 3539
5776, 3539, 3538, 3459
5777, 3460, 3461, 3540
5778, 3540, 3539, 3460
5779, 3461, 3462, 3541
5780, 3541, 3540, 3461
5781, 3462, 3463, 3542
5782, 3542, 3541, 3462
5783, 3463, 3464, 3543
5784, 3543, 3542, 3463
5785, 3464, 3465, 3544
5786, 3544, 3543, 3464
5787, 3465, 3466, 3545
5788, 3545, 3544, 3465
5789, 3466, 3467, 3546
5790, 3546, 3545, 3466
5791, 3467, 3468, 3547
5792, 3547, 3546, 3467
5793, 3468, 3469, 3548
5794, 3548, 3547, 3468
5795, 3469, 3470, 3549
5796, 3549, 3548, 3469
5797, 3470, 3471, 3550
5798, 3550, 3549, 3470
5799, 3471, 3472, 3551
5800, 3551, 3550, 3471
5801, 3472, 3473, 3552
5802, 3552, 3551, 3472
5803, 3473, 3474, 3553
5804, 3553, 3552, 3473
5805, 3474, 3475, 3554
5806, 3554, 3553, 3474
5807, 3475, 3476, 3555
5808, 3555, 3554, 3475
5809, 3476, 3477, 3556
5810, 3556, 3555, 3476
5811, 3477, 3478, 3557
5812, 3557, 3556, 3477
5813, 3478, 3479, 3558
5814, 3558, 3557, 3478
5815, 3479, 3480, 3559
5816, 3559, 3558, 3479
5817, 3480, 3481, 3560
5818, 3560, 3559, 3480
5819, 3481, 3482, 3561
5820, 3561, 3560, 3481
5821, 3482, 3483, 3562
5822, 3562, 3561, 3482
5823, 3483, 3484, 3563
5824, 3563, 3562, 3483
5825, 3484, 3485, 3564
5826, 3564, 3563, 3484
5827, 3485, 3486, 3565
5828, 3565, 3564, 3485
5829, 3486, 3487, 3566
5830, 3566, 3565, 3486
5831, 3487, 3488, 3567
5832, 3567, 3566, 3487
5833, 3488, 3489, 3568
5834, 3568, 3567, 3488
5835, 3489, 3490, 3569
5836, 3569, 3568, 3489
5837, 3490, 3491, 3570
5838, 3570, 3569, 3490
5839, 3491, 3492, 3571
5840, 3571, 3570, 3491
5841, 3492, 3493, 3572
5842, 3572, 3571, 3492
5843, 3493, 3494, 3573
5844, 3573, 3572, 3493
5845, 3494, 3495, 3574
5846, 3574, 3573, 3494
5847, 3495, 3496, 3575
5848, 3575, 3574, 3495
5849, 3496, 3497, 3576
5850, 3576, 3575, 3496
5851, 3497, 3498, 3577
5852, 3577, 3576, 3497
5853, 3498, 3499, 3578
5854, 3578, 3577, 3498
5855, 3499, 3500, 3579
5856, 3579, 3578, 3499
5857, 3500, 3501, 3580
5858, 3580, 3579, 3500
5859, 3501, 3502, 3581
5860, 3581, 3580, 3501
5861, 3502, 3503, 3582
5862, 3582, 3581, 3502
5863, 3503, 3504, 3583
5864, 3583, 3582, 3503
5865, 3504, 3505, 3584
5866, 3584, 3583, 3504
5867, 3505, 3506, 3585
5868, 3585, 3584, 3505
5869, 3506, 3507, 3586
5870, 3586, 3585, 3506
5871, 3507, 3508, 3587
5872, 3587, 3586, 3507
5873, 3508, 3509, 3588
5874, 3588, 3587, 3508
5875, 3509, 3510, 3589
5876, 3589, 3588, 3509
5877, 3510, 3511, 3590
5878, 3590, 3589, 3510
5879, 3511, 3512, 3591
5880, 3591, 3590, 3511
5881, 3512, 3513, 3592
5882, 3592, 3591, 3512
5883, 3513, 3514, 3593
5884, 3593, 3592, 3513
5885, 3514, 3515, 3594
5886, 3594, 3593, 3514
5887, 3515, 3516, 3595
5888, 3595, 3594, 3515
5889, 3516, 3517, 3596
5890, 3596, 3595, 3516
5891, 3517, 3518, 3597
5892, 3597, 3596, 3517
5893, 3518, 3519, 3598
5894, 3598, 3597, 3518
5895, 3519, 3520, 3599
5896, 3599, 3598, 3519
5897, 3520, 3521, 3600
5898, 3600, 3599, 3520
5899, 3521, 3522, 3601
5900, 3601, 3600, 3521
5901, 3522, 3523, 3602
5902, 3602, 3601, 3522
5903, 3523, 3524, 3603
5904, 3603, 3602, 3523
5905, 3524, 3525, 3604
5906, 3604, 3603, 3524
5907, 3525, 3526, 3605
5908, 3605, 3604, 3525
5909, 3526, 3527, 3606
5910, 3606, 3605, 3526
5911, 3527, 3528, 3607
5912, 3607, 3606, 3527
5913, 3528, 3529, 3608
5914, 3608, 3607, 3528
5915, 3529, 3530, 3609
5916, 3609, 3608, 3529
5917, 3530, 3531, 3610
5918, 3610, 3609, 3530
5919, 3531,  313,  314
5920,  314, 3610, 3531
5921,  402, 3532, 3611
5922, 3611,  401,  402
5923, 3532, 3533, 3612
5924, 3612, 3611, 3532
5925, 3533, 3534, 3613
5926, 3613, 3612, 3533
5927, 3534, 3535, 3614
5928, 3614, 3613, 3534
5929, 3535, 3536, 3615
5930, 3615, 3614, 3535
5931, 3536, 3537, 3616
5932, 3616, 3615, 3536
5933, 3537, 3538, 3617
5934, 3617, 3616, 3537
5935, 3538, 3539, 3618
5936, 3618, 3617, 3538
5937, 3539, 3540, 3619
5938, 3619, 3618, 3539
5939, 3540, 3541, 3620
5940, 3620, 3619, 3540
5941, 3541, 3542, 3621
5942, 3621, 3620, 3541
5943, 3542, 3543, 3622
5944, 3622, 3621, 3542
5945, 3543, 3544, 3623
5946, 3623, 3622, 3543
5947, 3544, 3545, 3624
5948, 3624, 3623, 3544
5949, 3545, 3546, 3625
5950, 3625, 3624, 3545
5951, 3546, 3547, 3626
5952, 3626, 3625, 3546
5953, 3547, 3548, 3627
5954, 3627, 3626, 3547
5955, 3548, 3549, 3628
5956, 3628, 3627, 3548
5957, 3549, 3550, 3629
5958, 3629, 3628, 3549
5959, 3550, 3551, 3630
5960, 3630, 3629, 3550
5961, 3551, 3552, 3631
5962, 3631, 3630, 3551
5963, 3552, 3553, 3632
5964, 3632, 3631, 3552
5965, 3553, 3554, 3633
5966, 3633, 3632, 3553
5967, 3554, 3555, 3634
5968, 3634, 3633, 3554
5969, 3555, 3556, 3635
5970, 3635, 3634, 3555
5971, 3556, 3557, 3636
5972, 3636, 3635, 3556
5973, 3557, 3558, 3637
5974, 3637, 3636, 3557
5975, 3558, 3559, 3638
5976, 3638, 3637, 3558
5977, 3559, 3560, 3639
5978, 3639, 3638, 3559
5979, 3560, 3561, 3640
5980, 3640, 3639, 3560
5981, 3561, 3562, 3641
5982, 3641, 3640, 3561
5983, 3562, 3563, 3642
5984, 3642, 3641, 3562
5985, 3563, 3564, 3643
5986, 3643, 3642, 3563
5987, 3564, 3565, 3644
5988, 3644, 3643, 3564
5989, 3565, 3566, 3645
5990, 3645, 3644, 3565
5991, 3566, 3567, 3646
5992, 3646, 3645, 3566
5993, 3567, 3568, 3647
5994, 3647, 3646, 3567
5995, 3568, 3569, 3648
5996, 3648, 3647, 3568
5997, 3569, 3570, 3649
5998, 3649, 3648, 3569
5999, 3570, 3571, 3650
6000, 3650, 3649, 3570
6001, 3571, 3572, 3651
6002, 3651, 3650, 3571
6003, 3572, 3573, 3652
6004, 3652, 3651, 3572
6005, 3573, 3574, 3653
6006, 3653, 3652, 3573
6007, 3574, 3575, 3654
6008, 3654, 3653, 3574
6009, 3575, 3576, 3655
6010, 3655, 3654, 3575
6011, 3576, 3577, 3656
6012, 3656, 3655, 3576
6013, 3577, 3578, 3657
6014, 3657, 3656, 3577
6015, 3578, 3579, 3658
6016, 3658, 3657, 3578
6017, 3579, 3580, 3659
6018, 3659, 3658, 3579
6019, 3580, 3581, 3660
6020, 3660, 3659, 3580
6021, 3581, 3582, 3661
6022, 3661, 3660, 3581
6023, 3582, 3583, 3662
6024, 3662, 3661, 3582
6025, 3583, 3584, 3663
6026, 3663, 3662, 3583
6027, 3584, 3585, 3664
6028, 3664, 3663, 3584
6029, 3585, 3586, 3665
6030, 3665, 3664, 3585
6031, 3586, 3587, 3666
6032, 3666, 3665, 3586
6033, 3587, 3588, 3667
6034, 3667, 3666, 3587
6035, 3588, 3589, 3668
6036, 3668, 3667, 3588
6037, 3589, 3590, 3669
6038, 3669, 3668, 3589
6039, 3590, 3591, 3670
6040, 3670, 3669, 3590
6041, 3591, 3592, 3671
6042, 3671, 3670, 3591
6043, 3592, 3593, 3672
6044, 3672, 3671, 3592
6045, 3593, 3594, 3673
6046, 3673, 3672, 3593
6047, 3594, 3595, 3674
6048, 3674, 3673, 3594
6049, 3595, 3596, 3675
6050, 3675, 3674, 3595
6051, 3596, 3597, 3676
6052, 3676, 3675, 3596
6053, 3597, 3598, 3677
6054, 3677, 3676, 3597
6055, 3598, 3599, 3678
6056, 3678, 3677, 3598
6057, 3599, 3600, 3679
6058, 3679, 3678, 3599
6059, 3600, 3601, 3680
6060, 3680, 3679, 3600
6061, 3601, 3602, 3681
6062, 3681, 3680, 3601
6063, 3602, 3603, 3682
6064, 3682, 3681, 3602
6065, 3603, 3604, 3683
6066, 3683, 3682, 3603
6067, 3604, 3605, 3684
6068, 3684, 3683, 3604
6069, 3605, 3606, 3685
6070, 3685, 3684, 3605
6071, 3606, 3607, 3686
6072, 3686, 3685, 3606
6073, 3607, 3608, 3687
6074, 3687, 3686, 3607
6075, 3608, 3609, 3688
6076, 3688, 3687, 3608
6077, 3609, 3610, 3689
6078, 3689, 3688, 3609
6079, 3610,  314,  315
6080,  315, 3689, 3610
6081,  401, 3611, 3690
6082, 3690,  400,  401
6083, 3611, 3612, 3691
6084, 3691, 3690, 3611
6085, 3612, 3613, 3692
6086, 3692, 3691, 3612
6087, 3613, 3614, 3693
6088, 3693, 3692, 3613
6089, 3614, 3615, 3694
6090, 3694, 3693, 3614
6091, 3615, 3616, 3695
6092, 3695, 3694, 3615
6093, 3616, 3617, 3696
6094, 3696, 3695, 3616
6095, 3617, 3618, 3697
6096, 3697, 3696, 3617
6097, 3618, 3619, 3698
6098, 3698, 3697, 3618
6099, 3619, 3620, 3699
6100, 3699, 3698, 3619
6101, 3620, 3621, 3700
6102, 3700, 3699, 3620
6103, 3621, 3622, 3701
6104, 3701, 3700, 3621
6105, 3622, 3623, 3702
6106, 3702, 3701, 3622
6107, 3623, 3624, 3703
6108, 3703, 3702, 3623
6109, 3624, 3625, 3704
6110, 3704, 3703, 3624
6111, 3625, 3626, 3705
6112, 3705, 3704, 3625
6113, 3626, 3627, 3706
6114, 3706, 3705, 3626
6115, 3627, 3628, 3707
6116, 3707, 3706, 3627
6117, 3628, 3629, 3708
6118, 3708, 3707, 3628
6119, 3629, 3630, 3709
6120, 3709, 3708, 3629
6121, 3630, 3631, 3710
6122, 3710, 3709, 3630
6123, 3631, 3632, 3711
6124, 3711, 3710, 3631
6125, 3632, 3633, 3712
6126, 3712, 3711, 3632
6127, 3633, 3634, 3713
6128, 3713, 3712, 3633
6129, 3634, 3635, 3714
6130, 3714, 3713, 3634
6131, 3635, 3636, 3715
6132, 3715, 3714, 3635
6133, 3636, 3637, 3716
6134, 3716, 3715, 3636
6135, 3637, 3638, 3717
6136, 3717, 3716, 3637
6137, 3638, 3639, 3718
6138, 3718, 3717, 3638
6139, 3639, 3640, 3719
6140, 3719, 3718, 3639
6141, 3640, 3641, 3720
6142, 3720, 3719, 3640
6143, 3641, 3642, 3721
6144, 3721, 3720, 3641
6145, 3642, 3643, 3722
6146, 3722, 3721, 3642
6147, 3643, 3644, 3723
6148, 3723, 3722, 3643
6149, 3644, 3645, 3724
6150, 3724, 3723, 3644
6151, 3645, 3646, 3725
6152, 3725, 3724, 3645
6153, 3646, 3647, 3726
6154, 3726, 3725, 3646
6155, 3647, 3648, 3727
6156, 3727, 3726, 3647
6157, 3648, 3649, 3728
6158, 3728, 3727, 3648
6159, 3649, 3650, 3729
6160, 3729, 3728, 3649
6161, 3650, 3651, 3730
6162, 3730, 3729, 3650
6163, 3651, 3652, 3731
6164, 3731, 3730, 3651
6165, 3652, 3653, 3732
6166, 3732, 3731, 3652
6167, 3653, 3654, 3733
6168, 3733, 3732, 3653
6169, 3654, 3655, 3734
6170, 3734, 3733, 3654
6171, 3655, 3656, 3735
6172, 3735, 3734, 3655
6173, 3656, 3657, 3736
6174, 3736, 3735, 3656
6175, 3657, 3658, 3737
6176, 3737, 3736, 3657
6177, 3658, 3659, 3738
6178, 3738, 3737, 3658
6179, 3659, 3660, 3739
6180, 3739, 3738, 3659
6181, 3660, 3661, 3740
6182, 3740, 3739, 3660
6183, 3661, 3662, 3741
6184, 3741, 3740, 3661
6185, 3662, 3663, 3742
6186, 3742, 3741, 3662
6187, 3663, 3664, 3743
6188, 3743, 3742, 3663
6189, 3664, 3665, 3744
6190, 3744, 3743, 3664
6191, 3665, 3666, 3745
6192, 3745, 3744, 3665
6193, 3666, 3667, 3746
6194, 3746, 3745, 3666
6195, 3667, 3668, 3747
6196, 3747, 3746, 3667
6197, 3668, 3669, 3748
6198, 3748, 3747, 3668
6199, 3669, 3670, 3749
6200, 3749, 3748, 3669
6201, 3670, 3671, 3750
6202, 3750, 3749, 3670
6203, 3671, 3672, 3751
6204, 3751, 3750, 3671
6205, 3672, 3673, 3752
6206, 3752, 3751, 3672
6207, 3673, 3674, 3753
6208, 3753, 3752, 3673
6209, 3674, 3675, 3754
6210, 3754, 3753, 3674
6211, 3675, 3676, 3755
6212, 3755, 3754, 3675
6213, 3676, 3677, 3756
6214, 3756, 3755, 3676
6215, 3677, 3678, 3757
6216, 3757, 3756, 3677
6217, 3678, 3679, 3758
6218, 3758, 3757, 3678
6219, 3679, 3680, 3759
6220, 3759, 3758, 3679
6221, 3680, 3681, 3760
6222, 3760, 3759, 3680
6223, 3681, 3682, 3761
6224, 3761, 3760, 3681
6225, 3682, 3683, 3762
6226, 3762, 3761, 3682
6227, 3683, 3684, 3763
6228, 3763, 3762, 3683
6229, 3684, 3685, 3764
6230, 3764, 3763, 3684
6231, 3685, 3686, 3765
6232, 3765, 3764, 3685
6233, 3686, 3687, 3766
6234, 3766, 3765, 3686
6235, 3687, 3688, 3767
6236, 3767, 3766, 3687
6237, 3688, 3689, 3768
6238, 3768, 3767, 3688
6239, 3689,  315,  316
6240,  316, 3768, 3689
6241,  400, 3690, 3769
6242, 3769,  399,  400
6243, 3690, 3691, 3770
6244, 3770, 3769, 3690
6245, 3691, 3692, 3771
6246, 3771, 3770, 3691
6247, 3692, 3693, 3772
6248, 3772, 3771, 3692
6249, 3693, 3694, 3773
6250, 3773, 3772, 3693
6251, 3694, 3695, 3774
6252, 3774, 3773, 3694
6253, 3695, 3696, 3775
6254, 3775, 3774, 3695
6255, 3696, 3697, 3776
6256, 3776, 3775, 3696
6257, 3697, 3698, 3777
6258, 3777, 3776, 3697
6259, 3698, 3699, 3778
6260, 3778, 3777, 3698
6261, 3699, 3700, 3779
6262, 3779, 3778, 3699
6263, 3700, 3701, 3780
6264, 3780, 3779, 3700
6265, 3701, 3702, 3781
6266, 3781, 3780, 3701
6267, 3702, 3703, 3782
6268, 3782, 3781, 3702
6269, 3703, 3704, 3783
6270, 3783, 3782, 3703
6271, 3704, 3705, 3784
6272, 3784, 3783, 3704
6273, 3705, 3706, 3785
6274, 3785, 3784, 3705
6275, 3706, 3707, 3786
6276, 3786, 3785, 3706
6277, 3707, 3708, 3787
6278, 3787, 3786, 3707
6279, 3708, 3709, 3788
6280, 3788, 3787, 3708
6281, 3709, 3710, 3789
6282, 3789, 3788, 3709
6283, 3710, 3711, 3790
6284, 3790, 3789, 3710
6285, 3711, 3712, 3791
6286, 3791, 3790, 3711
6287, 3712, 3713, 3792
6288, 3792, 3791, 3712
6289, 3713, 3714, 3793
6290, 3793, 3792, 3713
6291, 3714, 3715, 3794
6292, 3794, 3793, 3714
6293, 3715, 3716, 3795
6294, 3795, 3794, 3715
6295, 3716, 3717, 3796
6296, 3796, 3795, 3716
6297, 3717, 3718, 3797
6298, 3797, 3796, 3717
6299, 3718, 3719, 3798
6300, 3798, 3797, 3718
6301, 3719, 3720, 3799
6302, 3799, 3798, 3719
6303, 3720, 3721, 3800
6304, 3800, 3799, 3720
6305, 3721, 3722, 3801
6306, 3801, 3800, 3721
6307, 3722, 3723, 3802
6308, 3802, 3801, 3722
6309, 3723, 3724, 3803
6310, 3803, 3802, 3723
6311, 3724, 3725, 3804
6312, 3804, 3803, 3724
6313, 3725, 3726, 3805
6314, 3805, 3804, 3725
6315, 3726, 3727, 3806
6316, 3806, 3805, 3726
6317, 3727, 3728, 3807
6318, 3807, 3806, 3727
6319, 3728, 3729, 3808
6320, 3808, 3807, 3728
6321, 3729, 3730, 3809
6322, 3809, 3808, 3729
6323, 3730, 3731, 3810
6324, 3810, 3809, 3730
6325, 3731, 3732, 3811
6326, 3811, 3810, 3731
6327, 3732, 3733, 3812
6328, 3812, 3811, 3732
6329, 3733, 3734, 3813
6330, 3813, 3812, 3733
6331, 3734, 3735, 3814
6332, 3814, 3813, 3734
6333, 3735, 3736, 3815
6334, 3815, 3814, 3735
6335, 3736, 3737, 3816
6336, 3816, 3815, 3736
6337, 3737, 3738, 3817
6338, 3817, 3816, 3737
6339, 3738, 3739, 3818
6340, 3818, 3817, 3738
6341, 3739, 3740, 3819
6342, 3819, 3818, 3739
6343, 3740, 3741, 3820
6344, 3820, 3819, 3740
6345, 3741, 3742, 3821
6346, 3821, 3820, 3741
6347, 3742, 3743, 3822
6348, 3822, 3821, 3742
6349, 3743, 3744, 3823
6350, 3823, 3822, 3743
6351, 3744, 3745, 3824
6352, 3824, 3823, 3744
6353, 3745, 3746, 3825
6354, 3825, 3824, 3745
6355, 3746, 3747, 3826
6356, 3826, 3825, 3746
6357, 3747, 3748, 3827
6358, 3827, 3826, 3747
6359, 3748, 3749, 3828
6360, 3828, 3827, 3748
6361, 3749, 3750, 3829
6362, 3829, 3828, 3749
6363, 3750, 3751, 3830
6364, 3830, 3829, 3750
6365, 3751, 3752, 3831
6366, 3831, 3830, 3751
6367, 3752, 3753, 3832
6368, 3832, 3831, 3752
6369, 3753, 3754, 3833
6370, 3833, 3832, 3753
6371, 3754, 3755, 3834
6372, 3834, 3833, 3754
6373, 3755, 3756, 3835
6374, 3835, 3834, 3755
6375, 3756, 3757, 3836
6376, 3836, 3835, 3756
6377, 3757, 3758, 3837
6378, 3837, 3836, 3757
6379, 3758, 3759, 3838
6380, 3838, 3837, 3758
6381, 3759, 3760, 3839
6382, 3839, 3838, 3759
6383, 3760, 3761, 3840
6384, 3840, 3839, 3760
6385, 3761, 3762, 3841
6386, 3841, 3840, 3761
6387, 3762, 3763, 3842
6388, 3842, 3841, 3762
6389, 3763, 3764, 3843
6390, 3843, 3842, 3763
6391, 3764, 3765, 3844
6392, 3844, 3843, 3764
6393, 3765, 3766, 3845
6394, 3845, 3844, 3765
6395, 3766, 3767, 3846
6396, 3846, 3845, 3766
6397, 3767, 3768, 3847
6398, 3847, 3846, 3767
6399, 3768,  316,  317
6400,  317, 3847, 3768
6401,  399, 3769, 3848
6402, 3848,  398,  399
6403, 3769, 3770, 3849
6404, 3849, 3848, 3769
6405, 3770, 3771, 3850
6406, 3850, 3849, 3770
6407, 3771, 3772, 3851
6408, 3851, 3850, 3771
6409, 3772, 3773, 3852
6410, 3852, 3851, 3772
6411, 3773, 3774, 3853
6412, 3853, 3852, 3773
6413, 3774, 3775, 3854
6414, 3854, 3853, 3774
6415, 3775, 3776, 3855
6416, 3855, 3854, 3775
6417, 3776, 3777, 3856
6418, 3856, 3855, 3776
6419, 3777, 3778, 3857
6420, 3857, 3856, 3777
6421, 3778, 3779, 3858
6422, 3858, 3857, 3778
6423, 3779, 3780, 3859
6424, 3859, 3858, 3779
6425, 3780, 3781, 3860
6426, 3860, 3859, 3780
6427, 3781, 3782, 3861
6428, 3861, 3860, 3781
6429, 3782, 3783, 3862
6430, 3862, 3861, 3782
6431, 3783, 3784, 3863
6432, 3863, 3862, 3783
6433, 3784, 3785, 3864
6434, 3864, 3863, 3784
6435, 3785, 3786, 3865
6436, 3865, 3864, 3785
6437, 3786, 3787, 3866
6438, 3866, 3865, 3786
6439, 3787, 3788, 3867
6440, 3867, 3866, 3787
6441, 3788, 3789, 3868
6442, 3868, 3867, 3788
6443, 3789, 3790, 3869
6444, 3869, 3868, 3789
6445, 3790, 3791, 3870
6446, 3870, 3869, 3790
6447, 3791, 3792, 3871
6448, 3871, 3870, 3791
6449, 3792, 3793, 3872
6450, 3872, 3871, 3792
6451, 3793, 3794, 3873
6452, 3873, 3872, 3793
6453, 3794, 3795, 3874
6454, 3874, 3873, 3794
6455, 3795, 3796, 3875
6456, 3875, 3874, 3795
6457, 3796, 3797, 3876
6458, 3876, 3875, 3796
6459, 3797, 3798, 3877
6460, 3877, 3876, 3797
6461, 3798, 3799, 3878
6462, 3878, 3877, 3798
6463, 3799, 3800, 3879
6464, 3879, 3878, 3799
6465, 3800, 3801, 3880
6466, 3880, 3879, 3800
6467, 3801, 3802, 3881
6468, 3881, 3880, 3801
6469, 3802, 3803, 3882
6470, 3882, 3881, 3802
6471, 3803, 3804, 3883
6472, 3883, 3882, 3803
6473, 3804, 3805, 3884
6474, 3884, 3883, 3804
6475, 3805, 3806, 3885
6476, 3885, 3884, 3805
6477, 3806, 3807, 3886
6478, 3886, 3885, 3806
6479, 3807, 3808, 3887
6480, 3887, 3886, 3807
6481, 3808, 3809, 3888
6482, 3888, 3887, 3808
6483, 3809, 3810, 3889
6484, 3889, 3888, 3809
6485, 3810, 3811, 3890
6486, 3890, 3889, 3810
6487, 3811, 3812, 3891
6488, 3891, 3890, 3811
6489, 3812, 3813, 3892
6490, 3892, 3891, 3812
6491, 3813, 3814, 3893
6492, 3893, 3892, 3813
6493, 3814, 3815, 3894
6494, 3894, 3893, 3814
6495, 3815, 3816, 3895
6496, 3895, 3894, 3815
6497, 3816, 3817, 3896
6498, 3896, 3895, 3816
6499, 3817, 3818, 3897
6500, 3897, 3896, 3817
6501, 3818, 3819, 3898
6502, 3898, 3897, 3818
6503, 3819, 3820, 3899
6504, 3899, 3898, 3819
6505, 3820, 3821, 3900
6506, 3900, 3899, 3820
6507, 3821, 3822, 3901
6508, 3901, 3900, 3821
6509, 3822, 3823, 3902
6510, 3902, 3901, 3822
6511, 3823, 3824, 3903
6512, 3903, 3902, 3823
6513, 3824, 3825, 3904
6514, 3904, 3903, 3824
6515, 3825, 3826, 3905
6516, 3905, 3904, 3825
6517, 3826, 3827, 3906
6518, 3906, 3905, 3826
6519, 3827, 3828, 3907
6520, 3907, 3906, 3827
6521, 3828, 3829, 3908
6522, 3908, 3907, 3828
6523, 3829, 3830, 3909
6524, 3909, 3908, 3829
6525, 3830, 3831, 3910
6526, 3910, 3909, 3830
6527, 3831, 3832, 3911
6528, 3911, 3910, 3831
6529, 3832, 3833, 3912
6530, 3912, 3911, 3832
6531, 3833, 3834, 3913
6532, 3913, 3912, 3833
6533, 3834, 3835, 3914
6534, 3914, 3913, 3834
6535, 3835, 3836, 3915
6536, 3915, 3914, 3835
6537, 3836, 3837, 3916
6538, 3916, 3915, 3836
6539, 3837, 3838, 3917
6540, 3917, 3916, 3837
6541, 3838, 3839, 3918
6542, 3918, 3917, 3838
6543, 3839, 3840, 3919
6544, 3919, 3918, 3839
6545, 3840, 3841, 3920
6546, 3920, 3919, 3840
6547, 3841, 3842, 3921
6548, 3921, 3920, 3841
6549, 3842, 3843, 3922
6550, 3922, 3921, 3842
6551, 3843, 3844, 3923
6552, 3923, 3922, 3843
6553, 3844, 3845, 3924
6554, 3924, 3923, 3844
6555, 3845, 3846, 3925
6556, 3925, 3924, 3845
6557, 3846, 3847, 3926
6558, 3926, 3925, 3846
6559, 3847,  317,  318
6560,  318, 3926, 3847
6561,  398, 3848,  397
6562,  397,    8,  398
6563, 3848, 3849,  396
6564,  396,  397, 3848
6565, 3849, 3850,  395
6566,  395,  396, 3849
6567, 3850, 3851,  394
6568,  394,  395, 3850
6569, 3851, 3852,  393
6570,  393,  394, 3851
6571, 3852, 3853,  392
6572,  392,  393, 3852
6573, 3853, 3854,  391
6574,  391,  392, 3853
6575, 3854, 3855,  390
6576,  390,  391, 3854
6577, 3855, 3856,  389
6578,  389,  390, 3855
6579, 3856, 3857,  388
6580,  388,  389, 3856
6581, 3857, 3858,  387
6582,  387,  388, 3857
6583, 3858, 3859,  386
6584,  386,  387, 3858
6585, 3859, 3860,  385
6586,  385,  386, 3859
6587, 3860, 3861,  384
6588,  384,  385, 3860
6589, 3861, 3862,  383
6590,  383,  384, 3861
6591, 3862, 3863,  382
6592,  382,  383, 3862
6593, 3863, 3864,  381
6594,  381,  382, 3863
6595, 3864, 3865,  380
6596,  380,  381, 3864
6597, 3865, 3866,  379
6598,  379,  380, 3865
6599, 3866, 3867,  378
6600,  378,  379, 3866
6601, 3867, 3868,  377
6602,  377,  378, 3867
6603, 3868, 3869,  376
6604,  376,  377, 3868
6605, 3869, 3870,  375
6606,  375,  376, 3869
6607, 3870, 3871,  374
6608,  374,  375, 3870
6609, 3871, 3872,  373
6610,  373,  374, 3871
6611, 3872, 3873,  372
6612,  372,  373, 3872
6613, 3873, 3874,  371
6614,  371,  372, 3873
6615, 3874, 3875,  370
6616,  370,  371, 3874
6617, 3875, 3876,  369
6618,  369,  370, 3875
6619, 3876, 3877,  368
6620,  368,  369, 3876
6621, 3877, 3878,  367
6622,  367,  368, 3877
6623, 3878, 3879,  366
6624,  366,  367, 3878
6625, 3879, 3880,  365
6626,  365,  366, 3879
6627, 3880, 3881,  364
6628,  364,  365, 3880
6629, 3881, 3882,  363
6630,  363,  364, 3881
6631, 3882, 3883,  362
6632,  362,  363, 3882
6633, 3883, 3884,  361
6634,  361,  362, 3883
6635, 3884, 3885,  360
6636,  360,  361, 3884
6637, 3885, 3886,  359
6638,  359,  360, 3885
6639, 3886, 3887,  358
6640,  358,  359, 3886
6641, 3887, 3888,  357
6642,  357,  358, 3887
6643, 3888, 3889,  356
6644,  356,  357, 3888
6645, 3889, 3890,  355
6646,  355,  356, 3889
6647, 3890, 3891,  354
6648,  354,  355, 3890
6649, 3891, 3892,  353
6650,  353,  354, 3891
6651, 3892, 3893,  352
6652,  352,  353, 3892
6653, 3893, 3894,  351
6654,  351,  352, 3893
6655, 3894, 3895,  350
6656,  350,  351, 3894
6657, 3895, 3896,  349
6658,  349,  350, 3895
6659, 3896, 3897,  348
6660,  348,  349, 3896
6661, 3897, 3898,  347
6662,  347,  348, 3897
6663, 3898, 3899,  346
6664,  346,  347, 3898
6665, 3899, 3900,  345
6666,  345,  346, 3899
6667, 3900, 3901,  344
6668,  344,  345, 3900
6669, 3901, 3902,  343
6670,  343,  344, 3901
6671, 3902, 3903,  342
6672,  342,  343, 3902
6673, 3903, 3904,  341
6674,  341,  342, 3903
6675, 3904, 3905,  340
6676,  340,  341, 3904
6677, 3905, 3906,  339
6678,  339,  340, 3905
6679, 3906, 3907,  338
6680,  338,  339, 3906
6681, 3907, 3908,  337
6682,  337,  338, 3907
6683, 3908, 3909,  336
6684,  336,  337, 3908
6685, 3909, 3910,  335
6686,  335,  336, 3909
6687, 3910, 3911,  334
6688,  334,  335, 3910
6689, 3911, 3912,  333
6690,  333,  334, 3911
6691, 3912, 3913,  332
6692,  332,  333, 3912
6693, 3913, 3914,  331
6694,  331,  332, 3913
6695, 3914, 3915,  330
6696,  330,  331, 3914
6697, 3915, 3916,  329
6698,  329,  330, 3915
6699, 3916, 3917,  328
6700,  328,  329, 3916
6701, 3917, 3918,  327
6702,  327,  328, 3917
6703, 3918, 3919,  326
6704,  326,  327, 3918
6705, 3919, 3920,  325
6706,  325,  326, 3919
6707, 3920, 3921,  324
6708,  324,  325, 3920
6709, 3921, 3922,  323
6710,  323,  324, 3921
6711, 3922, 3923,  322
6712,  322,  323, 3922
6713, 3923, 3924,  321
6714,  321,  322, 3923
6715, 3924, 3925,  320
6716,  320,  321, 3924
6717, 3925, 3926,  319
6718,  319,  320, 3925
6719, 3926,  318,    7
6720,    7,  319, 3926
6721,    9,  415, 3927
6722, 3927,  606,    9
6723,  415,  416, 3928
6724, 3928, 3927,  415
6725,  416,  417, 3929
6726, 3929, 3928,  416
6727,  417,  418, 3930
6728, 3930, 3929,  417
6729,  418,  419, 3931
6730, 3931, 3930,  418
6731,  419,  420, 3932
6732, 3932, 3931,  419
6733,  420,  421, 3933
6734, 3933, 3932,  420
6735,  421,  422, 3934
6736, 3934, 3933,  421
6737,  422,  423, 3935
6738, 3935, 3934,  422
6739,  423,  424, 3936
6740, 3936, 3935,  423
6741,  424,  425, 3937
6742, 3937, 3936,  424
6743,  425,  426, 3938
6744, 3938, 3937,  425
6745,  426,  427, 3939
6746, 3939, 3938,  426
6747,  427,  428, 3940
6748, 3940, 3939,  427
6749,  428,  429, 3941
6750, 3941, 3940,  428
6751,  429,  430, 3942
6752, 3942, 3941,  429
6753,  430,  431, 3943
6754, 3943, 3942,  430
6755,  431,  432, 3944
6756, 3944, 3943,  431
6757,  432,  433, 3945
6758, 3945, 3944,  432
6759,  433,  434, 3946
6760, 3946, 3945,  433
6761,  434,  435, 3947
6762, 3947, 3946,  434
6763,  435,  436, 3948
6764, 3948, 3947,  435
6765,  436,  437, 3949
6766, 3949, 3948,  436
6767,  437,  438, 3950
6768, 3950, 3949,  437
6769,  438,  439, 3951
6770, 3951, 3950,  438
6771,  439,  440, 3952
6772, 3952, 3951,  439
6773,  440,  441, 3953
6774, 3953, 3952,  440
6775,  441,  442, 3954
6776, 3954, 3953,  441
6777,  442,  443, 3955
6778, 3955, 3954,  442
6779,  443,  444, 3956
6780, 3956, 3955,  443
6781,  444,  445, 3957
6782, 3957, 3956,  444
6783,  445,  446, 3958
6784, 3958, 3957,  445
6785,  446,  447, 3959
6786, 3959, 3958,  446
6787,  447,  448, 3960
6788, 3960, 3959,  447
6789,  448,  449, 3961
6790, 3961, 3960,  448
6791,  449,  450, 3962
6792, 3962, 3961,  449
6793,  450,  451, 3963
6794, 3963, 3962,  450
6795,  451,  452, 3964
6796, 3964, 3963,  451
6797,  452,  453, 3965
6798, 3965, 3964,  452
6799,  453,  454, 3966
6800, 3966, 3965,  453
6801,  454,  455, 3967
6802, 3967, 3966,  454
6803,  455,  456, 3968
6804, 3968, 3967,  455
6805,  456,  457, 3969
6806, 3969, 3968,  456
6807,  457,  458, 3970
6808, 3970, 3969,  457
6809,  458,  459, 3971
6810, 3971, 3970,  458
6811,  459,  460, 3972
6812, 3972, 3971,  459
6813,  460,  461, 3973
6814, 3973, 3972,  460
6815,  461,  462, 3974
6816, 3974, 3973,  461
6817,  462,  463, 3975
6818, 3975, 3974,  462
6819,  463,  464, 3976
6820, 3976, 3975,  463
6821,  464,  465, 3977
6822, 3977, 3976,  464
6823,  465,  466, 3978
6824, 3978, 3977,  465
6825,  466,  467, 3979
6826, 3979, 3978,  466
6827,  467,  468, 3980
6828, 3980, 3979,  467
6829,  468,  469, 3981
6830, 3981, 3980,  468
6831,  469,  470, 3982
6832, 3982, 3981,  469
6833,  470,  471, 3983
6834, 3983, 3982,  470
6835,  471,  472, 3984
6836, 3984, 3983,  471
6837,  472,  473, 3985
6838, 3985, 3984,  472
6839,  473,  474, 3986
6840, 3986, 3985,  473
6841,  474,  475, 3987
6842, 3987, 3986,  474
6843,  475,  476, 3988
6844, 3988, 3987,  475
6845,  476,  477, 3989
6846, 3989, 3988,  476
6847,  477,  478, 3990
6848, 3990, 3989,  477
6849,  478,  479, 3991
6850, 3991, 3990,  478
6851,  479,  480, 3992
6852, 3992, 3991,  479
6853,  480,  481, 3993
6854, 3993, 3992,  480
6855,  481,  482, 3994
6856, 3994, 3993,  481
6857,  482,  483, 3995
6858, 3995, 3994,  482
6859,  483,  484, 3996
6860, 3996, 3995,  483
6861,  484,  485, 3997
6862, 3997, 3996,  484
6863,  485,  486, 3998
6864, 3998, 3997,  485
6865,  486,  487, 3999
6866, 3999, 3998,  486
6867,  487,  488, 4000
6868, 4000, 3999,  487
6869,  488,  489, 4001
6870, 4001, 4000,  488
6871,  489,  490, 4002
6872, 4002, 4001,  489
6873,  490,  491, 4003
6874, 4003, 4002,  490
6875,  491,  492, 4004
6876, 4004, 4003,  491
6877,  492,  493, 4005
6878, 4005, 4004,  492
6879,  493,   10,  494
6880,  494, 4005,  493
6881,  606, 3927, 4006
6882, 4006,  605,  606
6883, 3927, 3928, 4007
6884, 4007, 4006, 3927
6885, 3928, 3929, 4008
6886, 4008, 4007, 3928
6887, 3929, 3930, 4009
6888, 4009, 4008, 3929
6889, 3930, 3931, 4010
6890, 4010, 4009, 3930
6891, 3931, 3932, 4011
6892, 4011, 4010, 3931
6893, 3932, 3933, 4012
6894, 4012, 4011, 3932
6895, 3933, 3934, 4013
6896, 4013, 4012, 3933
6897, 3934, 3935, 4014
6898, 4014, 4013, 3934
6899, 3935, 3936, 4015
6900, 4015, 4014, 3935
6901, 3936, 3937, 4016
6902, 4016, 4015, 3936
6903, 3937, 3938, 4017
6904, 4017, 4016, 3937
6905, 3938, 3939, 4018
6906, 4018, 4017, 3938
6907, 3939, 3940, 4019
6908, 4019, 4018, 3939
6909, 3940, 3941, 4020
6910, 4020, 4019, 3940
6911, 3941, 3942, 4021
6912, 4021, 4020, 3941
6913, 3942, 3943, 4022
6914, 4022, 4021, 3942
6915, 3943, 3944, 4023
6916, 4023, 4022, 3943
6917, 3944, 3945, 4024
6918, 4024, 4023, 3944
6919, 3945, 3946, 4025
6920, 4025, 4024, 3945
6921, 3946, 3947, 4026
6922, 4026, 4025, 3946
6923, 3947, 3948, 4027
6924, 4027, 4026, 3947
6925, 3948, 3949, 4028
6926, 4028, 4027, 3948
6927, 3949, 3950, 4029
6928, 4029, 4028, 3949
6929, 3950, 3951, 4030
6930, 4030, 4029, 3950
6931, 3951, 3952, 4031
6932, 4031, 4030, 3951
6933, 3952, 3953, 4032
6934, 4032, 4031, 3952
6935, 3953, 3954, 4033
6936, 4033, 4032, 3953
6937, 3954, 3955, 4034
6938, 4034, 4033, 3954
6939, 3955, 3956, 4035
6940, 4035, 4034, 3955
6941, 3956, 3957, 4036
6942, 4036, 4035, 3956
6943, 3957, 3958, 4037
6944, 4037, 4036, 3957
6945, 3958, 3959, 4038
6946, 4038, 4037, 3958
6947, 3959, 3960, 4039
6948, 4039, 4038, 3959
6949, 3960, 3961, 4040
6950, 4040, 4039, 3960
6951, 3961, 3962, 4041
6952, 4041, 4040, 3961
6953, 3962, 3963, 4042
6954, 4042, 4041, 3962
6955, 3963, 3964, 4043
6956, 4043, 4042, 3963
6957, 3964, 3965, 4044
6958, 4044, 4043, 3964
6959, 3965, 3966, 4045
6960, 4045, 4044, 3965
6961, 3966, 3967, 4046
6962, 4046, 4045, 3966
6963, 3967, 3968, 4047
6964, 4047, 4046, 3967
6965, 3968, 3969, 4048
6966, 4048, 4047, 3968
6967, 3969, 3970, 4049
6968, 4049, 4048, 3969
6969, 3970, 3971, 4050
6970, 4050, 4049, 3970
6971, 3971, 3972, 4051
6972, 4051, 4050, 3971
6973, 3972, 3973, 4052
6974, 4052, 4051, 3972
6975, 3973, 3974, 4053
6976, 4053, 4052, 3973
6977, 3974, 3975, 4054
6978, 4054, 4053, 3974
6979, 3975, 3976, 4055
6980, 4055, 4054, 3975
6981, 3976, 3977, 4056
6982, 4056, 4055, 3976
6983, 3977, 3978, 4057
6984, 4057, 4056, 3977
6985, 3978, 3979, 4058
6986, 4058, 4057, 3978
6987, 3979, 3980, 4059
6988, 4059, 4058, 3979
6989, 3980, 3981, 4060
6990, 4060, 4059, 3980
6991, 3981, 3982, 4061
6992, 4061, 4060, 3981
6993, 3982, 3983, 4062
6994, 4062, 4061, 3982
6995, 3983, 3984, 4063
6996, 4063, 4062, 3983
6997, 3984, 3985, 4064
6998, 4064, 4063, 3984
6999, 3985, 3986, 4065
7000, 4065, 4064, 3985
7001, 3986, 3987, 4066
7002, 4066, 4065, 3986
7003, 3987, 3988, 4067
7004, 4067, 4066, 3987
7005, 3988, 3989, 4068
7006, 4068, 4067, 3988
7007, 3989, 3990, 4069
7008, 4069, 4068, 3989
7009, 3990, 3991, 4070
7010, 4070, 4069, 3990
7011, 3991, 3992, 4071
7012, 4071, 4070, 3991
7013, 3992, 3993, 4072
7014, 4072, 4071, 3992
7015, 3993, 3994, 4073
7016, 4073, 4072, 3993
7017, 3994, 3995, 4074
7018, 4074, 4073, 3994
7019, 3995, 3996, 4075
7020, 4075, 4074, 3995
7021, 3996, 3997, 4076
7022, 4076, 4075, 3996
7023, 3997, 3998, 4077
7024, 4077, 4076, 3997
7025, 3998, 3999, 4078
7026, 4078, 4077, 3998
7027, 3999, 4000, 4079
7028, 4079, 4078, 3999
7029, 4000, 4001, 4080
7030, 4080, 4079, 4000
7031, 4001, 4002, 4081
7032, 4081, 4080, 4001
7033, 4002, 4003, 4082
7034, 4082, 4081, 4002
7035, 4003, 4004, 4083
7036, 4083, 4082, 4003
7037, 4004, 4005, 4084
7038, 4084, 4083, 4004
7039, 4005,  494,  495
7040,  495, 4084, 4005
7041,  605, 4006, 4085
7042, 4085,  604,  605
7043, 4006, 4007, 4086
7044, 4086, 4085, 4006
7045, 4007, 4008, 4087
7046, 4087, 4086, 4007
7047, 4008, 4009, 4088
7048, 4088, 4087, 4008
7049, 4009, 4010, 4089
7050, 4089, 4088, 4009
7051, 4010, 4011, 4090
7052, 4090, 4089, 4010
7053, 4011, 4012, 4091
7054, 4091, 4090, 4011
7055, 4012, 4013, 4092
7056, 4092, 4091, 4012
7057, 4013, 4014, 4093
7058, 4093, 4092, 4013
7059, 4014, 4015, 4094
7060, 4094, 4093, 4014
7061, 4015, 4016, 4095
7062, 4095, 4094, 4015
7063, 4016, 4017, 4096
7064, 4096, 4095, 4016
7065, 4017, 4018, 4097
7066, 4097, 4096, 4017
7067, 4018, 4019, 4098
7068, 4098, 4097, 4018
7069, 4019, 4020, 4099
7070, 4099, 4098, 4019
7071, 4020, 4021, 4100
7072, 4100, 4099, 4020
7073, 4021, 4022, 4101
7074, 4101, 4100, 4021
7075, 4022, 4023, 4102
7076, 4102, 4101, 4022
7077, 4023, 4024, 4103
7078, 4103, 4102, 4023
7079, 4024, 4025, 4104
7080, 4104, 4103, 4024
7081, 4025, 4026, 4105
7082, 4105, 4104, 4025
7083, 4026, 4027, 4106
7084, 4106, 4105, 4026
7085, 4027, 4028, 4107
7086, 4107, 4106, 4027
7087, 4028, 4029, 4108
7088, 4108, 4107, 4028
7089, 4029, 4030, 4109
7090, 4109, 4108, 4029
7091, 4030, 4031, 4110
7092, 4110, 4109, 4030
7093, 4031, 4032, 4111
7094, 4111, 4110, 4031
7095, 4032, 4033, 4112
7096, 4112, 4111, 4032
7097, 4033, 4034, 4113
7098, 4113, 4112, 4033
7099, 4034, 4035, 4114
7100, 4114, 4113, 4034
7101, 4035, 4036, 4115
7102, 4115, 4114, 4035
7103, 4036, 4037, 4116
7104, 4116, 4115, 4036
7105, 4037, 4038, 4117
7106, 4117, 4116, 4037
7107, 4038, 4039, 4118
7108, 4118, 4117, 4038
7109, 4039, 4040, 4119
7110, 4119, 4118, 4039
7111, 4040, 4041, 4120
7112, 4120, 4119, 4040
7113, 4041, 4042, 4121
7114, 4121, 4120, 4041
7115, 4042, 4043, 4122
7116, 4122, 4121, 4042
7117, 4043, 4044, 4123
7118, 4123, 4122, 4043
7119, 4044, 4045, 4124
7120, 4124, 4123, 4044
7121, 4045, 4046, 4125
7122, 4125, 4124, 4045
7123, 4046, 4047, 4126
7124, 4126, 4125, 4046
7125, 4047, 4048, 4127
7126, 4127, 4126, 4047
7127, 4048, 4049, 4128
7128, 4128, 4127, 4048
7129, 4049, 4050, 4129
7130, 4129, 4128, 4049
7131, 4050, 4051, 4130
7132, 4130, 4129, 4050
7133, 4051, 4052, 4131
7134, 4131, 4130, 4051
7135, 4052, 4053, 4132
7136, 4132, 4131, 4052
7137, 4053, 4054, 4133
7138, 4133, 4132, 4053
7139, 4054, 4055, 4134
7140, 4134, 4133, 4054
7141, 4055, 4056, 4135
7142, 4135, 4134, 4055
7143, 4056, 4057, 4136
7144, 4136, 4135, 4056
7145, 4057, 4058, 4137
7146, 4137, 4136, 4057
7147, 4058, 4059, 4138
7148, 4138, 4137, 4058
7149, 4059, 4060, 4139
7150, 4139, 4138, 4059
7151, 4060, 4061, 4140
7152, 4140, 4139, 4060
7153, 4061, 4062, 4141
7154, 4141, 4140, 4061
7155, 4062, 4063, 4142
7156, 4142, 4141, 4062
7157, 4063, 4064, 4143
7158, 4143, 4142, 4063
7159, 4064, 4065, 4144
7160, 4144, 4143, 4064
7161, 4065, 4066, 4145
7162, 4145, 4144, 4065
7163, 4066, 4067, 4146
7164, 4146, 4145, 4066
7165, 4067, 4068, 4147
7166, 4147, 4146, 4067
7167, 4068, 4069, 4148
7168, 4148, 4147, 4068
7169, 4069, 4070, 4149
7170, 4149, 4148, 4069
7171, 4070, 4071, 4150
7172, 4150, 4149, 4070
7173, 4071, 4072, 4151
7174, 4151, 4150, 4071
7175, 4072, 4073, 4152
7176, 4152, 4151, 4072
7177, 4073, 4074, 4153
7178, 4153, 4152, 4073
7179, 4074, 4075, 4154
7180, 4154, 4153, 4074
7181, 4075, 4076, 4155
7182, 4155, 4154, 4075
7183, 4076, 4077, 4156
7184, 4156, 4155, 4076
7185, 4077, 4078, 4157
7186, 4157, 4156, 4077
7187, 4078, 4079, 4158
7188, 4158, 4157, 4078
7189, 4079, 4080, 4159
7190, 4159, 4158, 4079
7191, 4080, 4081, 4160
7192, 4160, 4159, 4080
7193, 4081, 4082, 4161
7194, 4161, 4160, 4081
7195, 4082, 4083, 4162
7196, 4162, 4161, 4082
7197, 4083, 4084, 4163
7198, 4163, 4162, 4083
7199, 4084,  495,  496
7200,  496, 4163, 4084
7201,  604, 4085, 4164
7202, 4164,  603,  604
7203, 4085, 4086, 4165
7204, 4165, 4164, 4085
7205, 4086, 4087, 4166
7206, 4166, 4165, 4086
7207, 4087, 4088, 4167
7208, 4167, 4166, 4087
7209, 4088, 4089, 4168
7210, 4168, 4167, 4088
7211, 4089, 4090, 4169
7212, 4169, 4168, 4089
7213, 4090, 4091, 4170
7214, 4170, 4169, 4090
7215, 4091, 4092, 4171
7216, 4171, 4170, 4091
7217, 4092, 4093, 4172
7218, 4172, 4171, 4092
7219, 4093, 4094, 4173
7220, 4173, 4172, 4093
7221, 4094, 4095, 4174
7222, 4174, 4173, 4094
7223, 4095, 4096, 4175
7224, 4175, 4174, 4095
7225, 4096, 4097, 4176
7226, 4176, 4175, 4096
7227, 4097, 4098, 4177
7228, 4177, 4176, 4097
7229, 4098, 4099, 4178
7230, 4178, 4177, 4098
7231, 4099, 4100, 4179
7232, 4179, 4178, 4099
7233, 4100, 4101, 4180
7234, 4180, 4179, 4100
7235, 4101, 4102, 4181
7236, 4181, 4180, 4101
7237, 4102, 4103, 4182
7238, 4182, 4181, 4102
7239, 4103, 4104, 4183
7240, 4183, 4182, 4103
7241, 4104, 4105, 4184
7242, 4184, 4183, 4104
7243, 4105, 4106, 4185
7244, 4185, 4184, 4105
7245, 4106, 4107, 4186
7246, 4186, 4185, 4106
7247, 4107, 4108, 4187
7248, 4187, 4186, 4107
7249, 4108, 4109, 4188
7250, 4188, 4187, 4108
7251, 4109, 4110, 4189
7252, 4189, 4188, 4109
7253, 4110, 4111, 4190
7254, 4190, 4189, 4110
7255, 4111, 4112, 4191
7256, 4191, 4190, 4111
7257, 4112, 4113, 4192
7258, 4192, 4191, 4112
7259, 4113, 4114, 4193
7260, 4193, 4192, 4113
7261, 4114, 4115, 4194
7262, 4194, 4193, 4114
7263, 4115, 4116, 4195
7264, 4195, 4194, 4115
7265, 4116, 4117, 4196
7266, 4196, 4195, 4116
7267, 4117, 4118, 4197
7268, 4197, 4196, 4117
7269, 4118, 4119, 4198
7270, 4198, 4197, 4118
7271, 4119, 4120, 4199
7272, 4199, 4198, 4119
7273, 4120, 4121, 4200
7274, 4200, 4199, 4120
7275, 4121, 4122, 4201
7276, 4201, 4200, 4121
7277, 4122, 4123, 4202
7278, 4202, 4201, 4122
7279, 4123, 4124, 4203
7280, 4203, 4202, 4123
7281, 4124, 4125, 4204
7282, 4204, 4203, 4124
7283, 4125, 4126, 4205
7284, 4205, 4204, 4125
7285, 4126, 4127, 4206
7286, 4206, 4205, 4126
7287, 4127, 4128, 4207
7288, 4207, 4206, 4127
7289, 4128, 4129, 4208
7290, 4208, 4207, 4128
7291, 4129, 4130, 4209
7292, 4209, 4208, 4129
7293, 4130, 4131, 4210
7294, 4210, 4209, 4130
7295, 4131, 4132, 4211
7296, 4211, 4210, 4131
7297, 4132, 4133, 4212
7298, 4212, 4211, 4132
7299, 4133, 4134, 4213
7300, 4213, 4212, 4133
7301, 4134, 4135, 4214
7302, 4214, 4213, 4134
7303, 4135, 4136, 4215
7304, 4215, 4214, 4135
7305, 4136, 4137, 4216
7306, 4216, 4215, 4136
7307, 4137, 4138, 4217
7308, 4217, 4216, 4137
7309, 4138, 4139, 4218
7310, 4218, 4217, 4138
7311, 4139, 4140, 4219
7312, 4219, 4218, 4139
7313, 4140, 4141, 4220
7314, 4220, 4219, 4140
7315, 4141, 4142, 4221
7316, 4221, 4220, 4141
7317, 4142, 4143, 4222
7318, 4222, 4221, 4142
7319, 4143, 4144, 4223
7320, 4223, 4222, 4143
7321, 4144, 4145, 4224
7322, 4224, 4223, 4144
7323, 4145, 4146, 4225
7324, 4225, 4224, 4145
7325, 4146, 4147, 4226
7326, 4226, 4225, 4146
7327, 4147, 4148, 4227
7328, 4227, 4226, 4147
7329, 4148, 4149, 4228
7330, 4228, 4227, 4148
7331, 4149, 4150, 4229
7332, 4229, 4228, 4149
7333, 4150, 4151, 4230
7334, 4230, 4229, 4150
7335, 4151, 4152, 4231
7336, 4231, 4230, 4151
7337, 4152, 4153, 4232
7338, 4232, 4231, 4152
7339, 4153, 4154, 4233
7340, 4233, 4232, 4153
7341, 4154, 4155, 4234
7342, 4234, 4233, 4154
7343, 4155, 4156, 4235
7344, 4235, 4234, 4155
7345, 4156, 4157, 4236
7346, 4236, 4235, 4156
7347, 4157, 4158, 4237
7348, 4237, 4236, 4157
7349, 4158, 4159, 4238
7350, 4238, 4237, 4158
7351, 4159, 4160, 4239
7352, 4239, 4238, 4159
7353, 4160, 4161, 4240
7354, 4240, 4239, 4160
7355, 4161, 4162, 4241
7356, 4241, 4240, 4161
7357, 4162, 4163, 4242
7358, 4242, 4241, 4162
7359, 4163,  496,  497
7360,  497, 4242, 4163
7361,  603, 4164, 4243
7362, 4243,  602,  603
7363, 4164, 4165, 4244
7364, 4244, 4243, 4164
7365, 4165, 4166, 4245
7366, 4245, 4244, 4165
7367, 4166, 4167, 4246
7368, 4246, 4245, 4166
7369, 4167, 4168, 4247
7370, 4247, 4246, 4167
7371, 4168, 4169, 4248
7372, 4248, 4247, 4168
7373, 4169, 4170, 4249
7374, 4249, 4248, 4169
7375, 4170, 4171, 4250
7376, 4250, 4249, 4170
7377, 4171, 4172, 4251
7378, 4251, 4250, 4171
7379, 4172, 4173, 4252
7380, 4252, 4251, 4172
7381, 4173, 4174, 4253
7382, 4253, 4252, 4173
7383, 4174, 4175, 4254
7384, 4254, 4253, 4174
7385, 4175, 4176, 4255
7386, 4255, 4254, 4175
7387, 4176, 4177, 4256
7388, 4256, 4255, 4176
7389, 4177, 4178, 4257
7390, 4257, 4256, 4177
7391, 4178, 4179, 4258
7392, 4258, 4257, 4178
7393, 4179, 4180, 4259
7394, 4259, 4258, 4179
7395, 4180, 4181, 4260
7396, 4260, 4259, 4180
7397, 4181, 4182, 4261
7398, 4261, 4260, 4181
7399, 4182, 4183, 4262
7400, 4262, 4261, 4182
7401, 4183, 4184, 4263
7402, 4263, 4262, 4183
7403, 4184, 4185, 4264
7404, 4264, 4263, 4184
7405, 4185, 4186, 4265
7406, 4265, 4264, 4185
7407, 4186, 4187, 4266
7408, 4266, 4265, 4186
7409, 4187, 4188, 4267
7410, 4267, 4266, 4187
7411, 4188, 4189, 4268
7412, 4268, 4267, 4188
7413, 4189, 4190, 4269
7414, 4269, 4268, 4189
7415, 4190, 4191, 4270
7416, 4270, 4269, 4190
7417, 4191, 4192, 4271
7418, 4271, 4270, 4191
7419, 4192, 4193, 4272
7420, 4272, 4271, 4192
7421, 4193, 4194, 4273
7422, 4273, 4272, 4193
7423, 4194, 4195, 4274
7424, 4274, 4273, 4194
7425, 4195, 4196, 4275
7426, 4275, 4274, 4195
7427, 4196, 4197, 4276
7428, 4276, 4275, 4196
7429, 4197, 4198, 4277
7430, 4277, 4276, 4197
7431, 4198, 4199, 4278
7432, 4278, 4277, 4198
7433, 4199, 4200, 4279
7434, 4279, 4278, 4199
7435, 4200, 4201, 4280
7436, 4280, 4279, 4200
7437, 4201, 4202, 4281
7438, 4281, 4280, 4201
7439, 4202, 4203, 4282
7440, 4282, 4281, 4202
7441, 4203, 4204, 4283
7442, 4283, 4282, 4203
7443, 4204, 4205, 4284
7444, 4284, 4283, 4204
7445, 4205, 4206, 4285
7446, 4285, 4284, 4205
7447, 4206, 4207, 4286
7448, 4286, 4285, 4206
7449, 4207, 4208, 4287
7450, 4287, 4286, 4207
7451, 4208, 4209, 4288
7452, 4288, 4287, 4208
7453, 4209, 4210, 4289
7454, 4289, 4288, 4209
7455, 4210, 4211, 4290
7456, 4290, 4289, 4210
7457, 4211, 4212, 4291
7458, 4291, 4290, 4211
7459, 4212, 4213, 4292
7460, 4292, 4291, 4212
7461, 4213, 4214, 4293
7462, 4293, 4292, 4213
7463, 4214, 4215, 4294
7464, 4294, 4293, 4214
7465, 4215, 4216, 4295
7466, 4295, 4294, 4215
7467, 4216, 4217, 4296
7468, 4296, 4295, 4216
7469, 4217, 4218, 4297
7470, 4297, 4296, 4217
7471, 4218, 4219, 4298
7472, 4298, 4297, 4218
7473, 4219, 4220, 4299
7474, 4299, 4298, 4219
7475, 4220, 4221, 4300
7476, 4300, 4299, 4220
7477, 4221, 4222, 4301
7478, 4301, 4300, 4221
7479, 4222, 4223, 4302
7480, 4302, 4301, 4222
7481, 4223, 4224, 4303
7482, 4303, 4302, 4223
7483, 4224, 4225, 4304
7484, 4304, 4303, 4224
7485, 4225, 4226, 4305
7486, 4305, 4304, 4225
7487, 4226, 4227, 4306
7488, 4306, 4305, 4226
7489, 4227, 4228, 4307
7490, 4307, 4306, 4227
7491, 4228, 4229, 4308
7492, 4308, 4307, 4228
7493, 4229, 4230, 4309
7494, 4309, 4308, 4229
7495, 4230, 4231, 4310
7496, 4310, 4309, 4230
7497, 4231, 4232, 4311
7498, 4311, 4310, 4231
7499, 4232, 4233, 4312
7500, 4312, 4311, 4232
7501, 4233, 4234, 4313
7502, 4313, 4312, 4233
7503, 4234, 4235, 4314
7504, 4314, 4313, 4234
7505, 4235, 4236, 4315
7506, 4315, 4314, 4235
7507, 4236, 4237, 4316
7508, 4316, 4315, 4236
7509, 4237, 4238, 4317
7510, 4317, 4316, 4237
7511, 4238, 4239, 4318
7512, 4318, 4317, 4238
7513, 4239, 4240, 4319
7514, 4319, 4318, 4239
7515, 4240, 4241, 4320
7516, 4320, 4319, 4240
7517, 4241, 4242, 4321
7518, 4321, 4320, 4241
7519, 4242,  497,  498
7520,  498, 4321, 4242
7521,  602, 4243, 4322
7522, 4322,  601,  602
7523, 4243, 4244, 4323
7524, 4323, 4322, 4243
7525, 4244, 4245, 4324
7526, 4324, 4323, 4244
7527, 4245, 4246, 4325
7528, 4325, 4324, 4245
7529, 4246, 4247, 4326
7530, 4326, 4325, 4246
7531, 4247, 4248, 4327
7532, 4327, 4326, 4247
7533, 4248, 4249, 4328
7534, 4328, 4327, 4248
7535, 4249, 4250, 4329
7536, 4329, 4328, 4249
7537, 4250, 4251, 4330
7538, 4330, 4329, 4250
7539, 4251, 4252, 4331
7540, 4331, 4330, 4251
7541, 4252, 4253, 4332
7542, 4332, 4331, 4252
7543, 4253, 4254, 4333
7544, 4333, 4332, 4253
7545, 4254, 4255, 4334
7546, 4334, 4333, 4254
7547, 4255, 4256, 4335
7548, 4335, 4334, 4255
7549, 4256, 4257, 4336
7550, 4336, 4335, 4256
7551, 4257, 4258, 4337
7552, 4337, 4336, 4257
7553, 4258, 4259, 4338
7554, 4338, 4337, 4258
7555, 4259, 4260, 4339
7556, 4339, 4338, 4259
7557, 4260, 4261, 4340
7558, 4340, 4339, 4260
7559, 4261, 4262, 4341
7560, 4341, 4340, 4261
7561, 4262, 4263, 4342
7562, 4342, 4341, 4262
7563, 4263, 4264, 4343
7564, 4343, 4342, 4263
7565, 4264, 4265, 4344
7566, 4344, 4343, 4264
7567, 4265, 4266, 4345
7568, 4345, 4344, 4265
7569, 4266, 4267, 4346
7570, 4346, 4345, 4266
7571, 4267, 4268, 4347
7572, 4347, 4346, 4267
7573, 4268, 4269, 4348
7574, 4348, 4347, 4268
7575, 4269, 4270, 4349
7576, 4349, 4348, 4269
7577, 4270, 4271, 4350
7578, 4350, 4349, 4270
7579, 4271, 4272, 4351
7580, 4351, 4350, 4271
7581, 4272, 4273, 4352
7582, 4352, 4351, 4272
7583, 4273, 4274, 4353
7584, 4353, 4352, 4273
7585, 4274, 4275, 4354
7586, 4354, 4353, 4274
7587, 4275, 4276, 4355
7588, 4355, 4354, 4275
7589, 4276, 4277, 4356
7590, 4356, 4355, 4276
7591, 4277, 4278, 4357
7592, 4357, 4356, 4277
7593, 4278, 4279, 4358
7594, 4358, 4357, 4278
7595, 4279, 4280, 4359
7596, 4359, 4358, 4279
7597, 4280, 4281, 4360
7598, 4360, 4359, 4280
7599, 4281, 4282, 4361
7600, 4361, 4360, 4281
7601, 4282, 4283, 4362
7602, 4362, 4361, 4282
7603, 4283, 4284, 4363
7604, 4363, 4362, 4283
7605, 4284, 4285, 4364
7606, 4364, 4363, 4284
7607, 4285, 4286, 4365
7608, 4365, 4364, 4285
7609, 4286, 4287, 4366
7610, 4366, 4365, 4286
7611, 4287, 4288, 4367
7612, 4367, 4366, 4287
7613, 4288, 4289, 4368
7614, 4368, 4367, 4288
7615, 4289, 4290, 4369
7616, 4369, 4368, 4289
7617, 4290, 4291, 4370
7618, 4370, 4369, 4290
7619, 4291, 4292, 4371
7620, 4371, 4370, 4291
7621, 4292, 4293, 4372
7622, 4372, 4371, 4292
7623, 4293, 4294, 4373
7624, 4373, 4372, 4293
7625, 4294, 4295, 4374
7626, 4374, 4373, 4294
7627, 4295, 4296, 4375
7628, 4375, 4374, 4295
7629, 4296, 4297, 4376
7630, 4376, 4375, 4296
7631, 4297, 4298, 4377
7632, 4377, 4376, 4297
7633, 4298, 4299, 4378
7634, 4378, 4377, 4298
7635, 4299, 4300, 4379
7636, 4379, 4378, 4299
7637, 4300, 4301, 4380
7638, 4380, 4379, 4300
7639, 4301, 4302, 4381
7640, 4381, 4380, 4301
7641, 4302, 4303, 4382
7642, 4382, 4381, 4302
7643, 4303, 4304, 4383
7644, 4383, 4382, 4303
7645, 4304, 4305, 4384
7646, 4384, 4383, 4304
7647, 4305, 4306, 4385
7648, 4385, 4384, 4305
7649, 4306, 4307, 4386
7650, 4386, 4385, 4306
7651, 4307, 4308, 4387
7652, 4387, 4386, 4307
7653, 4308, 4309, 4388
7654, 4388, 4387, 4308
7655, 4309, 4310, 4389
7656, 4389, 4388, 4309
7657, 4310, 4311, 4390
7658, 4390, 4389, 4310
7659, 4311, 4312, 4391
7660, 4391, 4390, 4311
7661, 4312, 4313, 4392
7662, 4392, 4391, 4312
7663, 4313, 4314, 4393
7664, 4393, 4392, 4313
7665, 4314, 4315, 4394
7666, 4394, 4393, 4314
7667, 4315, 4316, 4395
7668, 4395, 4394, 4315
7669, 4316, 4317, 4396
7670, 4396, 4395, 4316
7671, 4317, 4318, 4397
7672, 4397, 4396, 4317
7673, 4318, 4319, 4398
7674, 4398, 4397, 4318
7675, 4319, 4320, 4399
7676, 4399, 4398, 4319
7677, 4320, 4321, 4400
7678, 4400, 4399, 4320
7679, 4321,  498,  499
7680,  499, 4400, 4321
7681,  601, 4322, 4401
7682, 4401,  600,  601
7683, 4322, 4323, 4402
7684, 4402, 4401, 4322
7685, 4323, 4324, 4403
7686, 4403, 4402, 4323
7687, 4324, 4325, 4404
7688, 4404, 4403, 4324
7689, 4325, 4326, 4405
7690, 4405, 4404, 4325
7691, 4326, 4327, 4406
7692, 4406, 4405, 4326
7693, 4327, 4328, 4407
7694, 4407, 4406, 4327
7695, 4328, 4329, 4408
7696, 4408, 4407, 4328
7697, 4329, 4330, 4409
7698, 4409, 4408, 4329
7699, 4330, 4331, 4410
7700, 4410, 4409, 4330
7701, 4331, 4332, 4411
7702, 4411, 4410, 4331
7703, 4332, 4333, 4412
7704, 4412, 4411, 4332
7705, 4333, 4334, 4413
7706, 4413, 4412, 4333
7707, 4334, 4335, 4414
7708, 4414, 4413, 4334
7709, 4335, 4336, 4415
7710, 4415, 4414, 4335
7711, 4336, 4337, 4416
7712, 4416, 4415, 4336
7713, 4337, 4338, 4417
7714, 4417, 4416, 4337
7715, 4338, 4339, 4418
7716, 4418, 4417, 4338
7717, 4339, 4340, 4419
7718, 4419, 4418, 4339
7719, 4340, 4341, 4420
7720, 4420, 4419, 4340
7721, 4341, 4342, 4421
7722, 4421, 4420, 4341
7723, 4342, 4343, 4422
7724, 4422, 4421, 4342
7725, 4343, 4344, 4423
7726, 4423, 4422, 4343
7727, 4344, 4345, 4424
7728, 4424, 4423, 4344
7729, 4345, 4346, 4425
7730, 4425, 4424, 4345
7731, 4346, 4347, 4426
7732, 4426, 4425, 4346
7733, 4347, 4348, 4427
7734, 4427, 4426, 4347
7735, 4348, 4349, 4428
7736, 4428, 4427, 4348
7737, 4349, 4350, 4429
7738, 4429, 4428, 4349
7739, 4350, 4351, 4430
7740, 4430, 4429, 4350
7741, 4351, 4352, 4431
7742, 4431, 4430, 4351
7743, 4352, 4353, 4432
7744, 4432, 4431, 4352
7745, 4353, 4354, 4433
7746, 4433, 4432, 4353
7747, 4354, 4355, 4434
7748, 4434, 4433, 4354
7749, 4355, 4356, 4435
7750, 4435, 4434, 4355
7751, 4356, 4357, 4436
7752, 4436, 4435, 4356
7753, 4357, 4358, 4437
7754, 4437, 4436, 4357
7755, 4358, 4359, 4438
7756, 4438, 4437, 4358
7757, 4359, 4360, 4439
7758, 4439, 4438, 4359
7759, 4360, 4361, 4440
7760, 4440, 4439, 4360
7761, 4361, 4362, 4441
7762, 4441, 4440, 4361
7763, 4362, 4363, 4442
7764, 4442, 4441, 4362
7765, 4363, 4364, 4443
7766, 4443, 4442, 4363
7767, 4364, 4365, 4444
7768, 4444, 4443, 4364
7769, 4365, 4366, 4445
7770, 4445, 4444, 4365
7771, 4366, 4367, 4446
7772, 4446, 4445, 4366
7773, 4367, 4368, 4447
7774, 4447, 4446, 4367
7775, 4368, 4369, 4448
7776, 4448, 4447, 4368
7777, 4369, 4370, 4449
7778, 4449, 4448, 4369
7779, 4370, 4371, 4450
7780, 4450, 4449, 4370
7781, 4371, 4372, 4451
7782, 4451, 4450, 4371
7783, 4372, 4373, 4452
7784, 4452, 4451, 4372
7785, 4373, 4374, 4453
7786, 4453, 4452, 4373
7787, 4374, 4375, 4454
7788, 4454, 4453, 4374
7789, 4375, 4376, 4455
7790, 4455, 4454, 4375
7791, 4376, 4377, 4456
7792, 4456, 4455, 4376
7793, 4377, 4378, 4457
7794, 4457, 4456, 4377
7795, 4378, 4379, 4458
7796, 4458, 4457, 4378
7797, 4379, 4380, 4459
7798, 4459, 4458, 4379
7799, 4380, 4381, 4460
7800, 4460, 4459, 4380
7801, 4381, 4382, 4461
7802, 4461, 4460, 4381
7803, 4382, 4383, 4462
7804, 4462, 4461, 4382
7805, 4383, 4384, 4463
7806, 4463, 4462, 4383
7807, 4384, 4385, 4464
7808, 4464, 4463, 4384
7809, 4385, 4386, 4465
7810, 4465, 4464, 4385
7811, 4386, 4387, 4466
7812, 4466, 4465, 4386
7813, 4387, 4388, 4467
7814, 4467, 4466, 4387
7815, 4388, 4389, 4468
7816, 4468, 4467, 4388
7817, 4389, 4390, 4469
7818, 4469, 4468, 4389
7819, 4390, 4391, 4470
7820, 4470, 4469, 4390
7821, 4391, 4392, 4471
7822, 4471, 4470, 4391
7823, 4392, 4393, 4472
7824, 4472, 4471, 4392
7825, 4393, 4394, 4473
7826, 4473, 4472, 4393
7827, 4394, 4395, 4474
7828, 4474, 4473, 4394
7829, 4395, 4396, 4475
7830, 4475, 4474, 4395
7831, 4396, 4397, 4476
7832, 4476, 4475, 4396
7833, 4397, 4398, 4477
7834, 4477, 4476, 4397
7835, 4398, 4399, 4478
7836, 4478, 4477, 4398
7837, 4399, 4400, 4479
7838, 4479, 4478, 4399
7839, 4400,  499,  500
7840,  500, 4479, 4400
7841,  600, 4401, 4480
7842, 4480,  599,  600
7843, 4401, 4402, 4481
7844, 4481, 4480, 4401
7845, 4402, 4403, 4482
7846, 4482, 4481, 4402
7847, 4403, 4404, 4483
7848, 4483, 4482, 4403
7849, 4404, 4405, 4484
7850, 4484, 4483, 4404
7851, 4405, 4406, 4485
7852, 4485, 4484, 4405
7853, 4406, 4407, 4486
7854, 4486, 4485, 4406
7855, 4407, 4408, 4487
7856, 4487, 4486, 4407
7857, 4408, 4409, 4488
7858, 4488, 4487, 4408
7859, 4409, 4410, 4489
7860, 4489, 4488, 4409
7861, 4410, 4411, 4490
7862, 4490, 4489, 4410
7863, 4411, 4412, 4491
7864, 4491, 4490, 4411
7865, 4412, 4413, 4492
7866, 4492, 4491, 4412
7867, 4413, 4414, 4493
7868, 4493, 4492, 4413
7869, 4414, 4415, 4494
7870, 4494, 4493, 4414
7871, 4415, 4416, 4495
7872, 4495, 4494, 4415
7873, 4416, 4417, 4496
7874, 4496, 4495, 4416
7875, 4417, 4418, 4497
7876, 4497, 4496, 4417
7877, 4418, 4419, 4498
7878, 4498, 4497, 4418
7879, 4419, 4420, 4499
7880, 4499, 4498, 4419
7881, 4420, 4421, 4500
7882, 4500, 4499, 4420
7883, 4421, 4422, 4501
7884, 4501, 4500, 4421
7885, 4422, 4423, 4502
7886, 4502, 4501, 4422
7887, 4423, 4424, 4503
7888, 4503, 4502, 4423
7889, 4424, 4425, 4504
7890, 4504, 4503, 4424
7891, 4425, 4426, 4505
7892, 4505, 4504, 4425
7893, 4426, 4427, 4506
7894, 4506, 4505, 4426
7895, 4427, 4428, 4507
7896, 4507, 4506, 4427
7897, 4428, 4429, 4508
7898, 4508, 4507, 4428
7899, 4429, 4430, 4509
7900, 4509, 4508, 4429
7901, 4430, 4431, 4510
7902, 4510, 4509, 4430
7903, 4431, 4432, 4511
7904, 4511, 4510, 4431
7905, 4432, 4433, 4512
7906, 4512, 4511, 4432
7907, 4433, 4434, 4513
7908, 4513, 4512, 4433
7909, 4434, 4435, 4514
7910, 4514, 4513, 4434
7911, 4435, 4436, 4515
7912, 4515, 4514, 4435
7913, 4436, 4437, 4516
7914, 4516, 4515, 4436
7915, 4437, 4438, 4517
7916, 4517, 4516, 4437
7917, 4438, 4439, 4518
7918, 4518, 4517, 4438
7919, 4439, 4440, 4519
7920, 4519, 4518, 4439
7921, 4440, 4441, 4520
7922, 4520, 4519, 4440
7923, 4441, 4442, 4521
7924, 4521, 4520, 4441
7925, 4442, 4443, 4522
7926, 4522, 4521, 4442
7927, 4443, 4444, 4523
7928, 4523, 4522, 4443
7929, 4444, 4445, 4524
7930, 4524, 4523, 4444
7931, 4445, 4446, 4525
7932, 4525, 4524, 4445
7933, 4446, 4447, 4526
7934, 4526, 4525, 4446
7935, 4447, 4448, 4527
7936, 4527, 4526, 4447
7937, 4448, 4449, 4528
7938, 4528, 4527, 4448
7939, 4449, 4450, 4529
7940, 4529, 4528, 4449
7941, 4450, 4451, 4530
7942, 4530, 4529, 4450
7943, 4451, 4452, 4531
7944, 4531, 4530, 4451
7945, 4452, 4453, 4532
7946, 4532, 4531, 4452
7947, 4453, 4454, 4533
7948, 4533, 4532, 4453
7949, 4454, 4455, 4534
7950, 4534, 4533, 4454
7951, 4455, 4456, 4535
7952, 4535, 4534, 4455
7953, 4456, 4457, 4536
7954, 4536, 4535, 4456
7955, 4457, 4458, 4537
7956, 4537, 4536, 4457
7957, 4458, 4459, 4538
7958, 4538, 4537, 4458
7959, 4459, 4460, 4539
7960, 4539, 4538, 4459
7961, 4460, 4461, 4540
7962, 4540, 4539, 4460
7963, 4461, 4462, 4541
7964, 4541, 4540, 4461
7965, 4462, 4463, 4542
7966, 4542, 4541, 4462
7967, 4463, 4464, 4543
7968, 4543, 4542, 4463
7969, 4464, 4465, 4544
7970, 4544, 4543, 4464
7971, 4465, 4466, 4545
7972, 4545, 4544, 4465
7973, 4466, 4467, 4546
7974, 4546, 4545, 4466
7975, 4467, 4468, 4547
7976, 4547, 4546, 4467
7977, 4468, 4469, 4548
7978, 4548, 4547, 4468
7979, 4469, 4470, 4549
7980, 4549, 4548, 4469
7981, 4470, 4471, 4550
7982, 4550, 4549, 4470
7983, 4471, 4472, 4551
7984, 4551, 4550, 4471
7985, 4472, 4473, 4552
7986, 4552, 4551, 4472
7987, 4473, 4474, 4553
7988, 4553, 4552, 4473
7989, 4474, 4475, 4554
7990, 4554, 4553, 4474
7991, 4475, 4476, 4555
7992, 4555, 4554, 4475
7993, 4476, 4477, 4556
7994, 4556, 4555, 4476
7995, 4477, 4478, 4557
7996, 4557, 4556, 4477
7997, 4478, 4479, 4558
7998, 4558, 4557, 4478
7999, 4479,  500,  501
8000,  501, 4558, 4479
8001,  599, 4480, 4559
8002, 4559,  598,  599
8003, 4480, 4481, 4560
8004, 4560, 4559, 4480
8005, 4481, 4482, 4561
8006, 4561, 4560, 4481
8007, 4482, 4483, 4562
8008, 4562, 4561, 4482
8009, 4483, 4484, 4563
8010, 4563, 4562, 4483
8011, 4484, 4485, 4564
8012, 4564, 4563, 4484
8013, 4485, 4486, 4565
8014, 4565, 4564, 4485
8015, 4486, 4487, 4566
8016, 4566, 4565, 4486
8017, 4487, 4488, 4567
8018, 4567, 4566, 4487
8019, 4488, 4489, 4568
8020, 4568, 4567, 4488
8021, 4489, 4490, 4569
8022, 4569, 4568, 4489
8023, 4490, 4491, 4570
8024, 4570, 4569, 4490
8025, 4491, 4492, 4571
8026, 4571, 4570, 4491
8027, 4492, 4493, 4572
8028, 4572, 4571, 4492
8029, 4493, 4494, 4573
8030, 4573, 4572, 4493
8031, 4494, 4495, 4574
8032, 4574, 4573, 4494
8033, 4495, 4496, 4575
8034, 4575, 4574, 4495
8035, 4496, 4497, 4576
8036, 4576, 4575, 4496
8037, 4497, 4498, 4577
8038, 4577, 4576, 4497
8039, 4498, 4499, 4578
8040, 4578, 4577, 4498
8041, 4499, 4500, 4579
8042, 4579, 4578, 4499
8043, 4500, 4501, 4580
8044, 4580, 4579, 4500
8045, 4501, 4502, 4581
8046, 4581, 4580, 4501
8047, 4502, 4503, 4582
8048, 4582, 4581, 4502
8049, 4503, 4504, 4583
8050, 4583, 4582, 4503
8051, 4504, 4505, 4584
8052, 4584, 4583, 4504
8053, 4505, 4506, 4585
8054, 4585, 4584, 4505
8055, 4506, 4507, 4586
8056, 4586, 4585, 4506
8057, 4507, 4508, 4587
8058, 4587, 4586, 4507
8059, 4508, 4509, 4588
8060, 4588, 4587, 4508
8061, 4509, 4510, 4589
8062, 4589, 4588, 4509
8063, 4510, 4511, 4590
8064, 4590, 4589, 4510
8065, 4511, 4512, 4591
8066, 4591, 4590, 4511
8067, 4512, 4513, 4592
8068, 4592, 4591, 4512
8069, 4513, 4514, 4593
8070, 4593, 4592, 4513
8071, 4514, 4515, 4594
8072, 4594, 4593, 4514
8073, 4515, 4516, 4595
8074, 4595, 4594, 4515
8075, 4516, 4517, 4596
8076, 4596, 4595, 4516
8077, 4517, 4518, 4597
8078, 4597, 4596, 4517
8079, 4518, 4519, 4598
8080, 4598, 4597, 4518
8081, 4519, 4520, 4599
8082, 4599, 4598, 4519
8083, 4520, 4521, 4600
8084, 4600, 4599, 4520
8085, 4521, 4522, 4601
8086, 4601, 4600, 4521
8087, 4522, 4523, 4602
8088, 4602, 4601, 4522
8089, 4523, 4524, 4603
8090, 4603, 4602, 4523
8091, 4524, 4525, 4604
8092, 4604, 4603, 4524
8093, 4525, 4526, 4605
8094, 4605, 4604, 4525
8095, 4526, 4527, 4606
8096, 4606, 4605, 4526
8097, 4527, 4528, 4607
8098, 4607, 4606, 4527
8099, 4528, 4529, 4608
8100, 4608, 4607, 4528
8101, 4529, 4530, 4609
8102, 4609, 4608, 4529
8103, 4530, 4531, 4610
8104, 4610, 4609, 4530
8105, 4531, 4532, 4611
8106, 4611, 4610, 4531
8107, 4532, 4533, 4612
8108, 4612, 4611, 4532
8109, 4533, 4534, 4613
8110, 4613, 4612, 4533
8111, 4534, 4535, 4614
8112, 4614, 4613, 4534
8113, 4535, 4536, 4615
8114, 4615, 4614, 4535
8115, 4536, 4537, 4616
8116, 4616, 4615, 4536
8117, 4537, 4538, 4617
8118, 4617, 4616, 4537
8119, 4538, 4539, 4618
8120, 4618, 4617, 4538
8121, 4539, 4540, 4619
8122, 4619, 4618, 4539
8123, 4540, 4541, 4620
8124, 4620, 4619, 4540
8125, 4541, 4542, 4621
8126, 4621, 4620, 4541
8127, 4542, 4543, 4622
8128, 4622, 4621, 4542
8129, 4543, 4544, 4623
8130, 4623, 4622, 4543
8131, 4544, 4545, 4624
8132, 4624, 4623, 4544
8133, 4545, 4546, 4625
8134, 4625, 4624, 4545
8135, 4546, 4547, 4626
8136, 4626, 4625, 4546
8137, 4547, 4548, 4627
8138, 4627, 4626, 4547
8139, 4548, 4549, 4628
8140, 4628, 4627, 4548
8141, 4549, 4550, 4629
8142, 4629, 4628, 4549
8143, 4550, 4551, 4630
8144, 4630, 4629, 4550
8145, 4551, 4552, 4631
8146, 4631, 4630, 4551
8147, 4552, 4553, 4632
8148, 4632, 4631, 4552
8149, 4553, 4554, 4633
8150, 4633, 4632, 4553
8151, 4554, 4555, 4634
8152, 4634, 4633, 4554
8153, 4555, 4556, 4635
8154, 4635, 4634, 4555
8155, 4556, 4557, 4636
8156, 4636, 4635, 4556
8157, 4557, 4558, 4637
8158, 4637, 4636, 4557
8159, 4558,  501,  502
8160,  502, 4637, 4558
8161,  598, 4559, 4638
8162, 4638,  597,  598
8163, 4559, 4560, 4639
8164, 4639, 4638, 4559
8165, 4560, 4561, 4640
8166, 4640, 4639, 4560
8167, 4561, 4562, 4641
8168, 4641, 4640, 4561
8169, 4562, 4563, 4642
8170, 4642, 4641, 4562
8171, 4563, 4564, 4643
8172, 4643, 4642, 4563
8173, 4564, 4565, 4644
8174, 4644, 4643, 4564
8175, 4565, 4566, 4645
8176, 4645, 4644, 4565
8177, 4566, 4567, 4646
8178, 4646, 4645, 4566
8179, 4567, 4568, 4647
8180, 4647, 4646, 4567
8181, 4568, 4569, 4648
8182, 4648, 4647, 4568
8183, 4569, 4570, 4649
8184, 4649, 4648, 4569
8185, 4570, 4571, 4650
8186, 4650, 4649, 4570
8187, 4571, 4572, 4651
8188, 4651, 4650, 4571
8189, 4572, 4573, 4652
8190, 4652, 4651, 4572
8191, 4573, 4574, 4653
8192, 4653, 4652, 4573
8193, 4574, 4575, 4654
8194, 4654, 4653, 4574
8195, 4575, 4576, 4655
8196, 4655, 4654, 4575
8197, 4576, 4577, 4656
8198, 4656, 4655, 4576
8199, 4577, 4578, 4657
8200, 4657, 4656, 4577
8201, 4578, 4579, 4658
8202, 4658, 4657, 4578
8203, 4579, 4580, 4659
8204, 4659, 4658, 4579
8205, 4580, 4581, 4660
8206, 4660, 4659, 4580
8207, 4581, 4582, 4661
8208, 4661, 4660, 4581
8209, 4582, 4583, 4662
8210, 4662, 4661, 4582
8211, 4583, 4584, 4663
8212, 4663, 4662, 4583
8213, 4584, 4585, 4664
8214, 4664, 4663, 4584
8215, 4585, 4586, 4665
8216, 4665, 4664, 4585
8217, 4586, 4587, 4666
8218, 4666, 4665, 4586
8219, 4587, 4588, 4667
8220, 4667, 4666, 4587
8221, 4588, 4589, 4668
8222, 4668, 4667, 4588
8223, 4589, 4590, 4669
8224, 4669, 4668, 4589
8225, 4590, 4591, 4670
8226, 4670, 4669, 4590
8227, 4591, 4592, 4671
8228, 4671, 4670, 4591
8229, 4592, 4593, 4672
8230, 4672, 4671, 4592
8231, 4593, 4594, 4673
8232, 4673, 4672, 4593
8233, 4594, 4595, 4674
8234, 4674, 4673, 4594
8235, 4595, 4596, 4675
8236, 4675, 4674, 4595
8237, 4596, 4597, 4676
8238, 4676, 4675, 4596
8239, 4597, 4598, 4677
8240, 4677, 4676, 4597
8241, 4598, 4599, 4678
8242, 4678, 4677, 4598
8243, 4599, 4600, 4679
8244, 4679, 4678, 4599
8245, 4600, 4601, 4680
8246, 4680, 4679, 4600
8247, 4601, 4602, 4681
8248, 4681, 4680, 4601
8249, 4602, 4603, 4682
8250, 4682, 4681, 4602
8251, 4603, 4604, 4683
8252, 4683, 4682, 4603
8253, 4604, 4605, 4684
8254, 4684, 4683, 4604
8255, 4605, 4606, 4685
8256, 4685, 4684, 4605
8257, 4606, 4607, 4686
8258, 4686, 4685, 4606
8259, 4607, 4608, 4687
8260, 4687, 4686, 4607
8261, 4608, 4609, 4688
8262, 4688, 4687, 4608
8263, 4609, 4610, 4689
8264, 4689, 4688, 4609
8265, 4610, 4611, 4690
8266, 4690, 4689, 4610
8267, 4611, 4612, 4691
8268, 4691, 4690, 4611
8269, 4612, 4613, 4692
8270, 4692, 4691, 4612
8271, 4613, 4614, 4693
8272, 4693, 4692, 4613
8273, 4614, 4615, 4694
8274, 4694, 4693, 4614
8275, 4615, 4616, 4695
8276, 4695, 4694, 4615
8277, 4616, 4617, 4696
8278, 4696, 4695, 4616
8279, 4617, 4618, 4697
8280, 4697, 4696, 4617
8281, 4618, 4619, 4698
8282, 4698, 4697, 4618
8283, 4619, 4620, 4699
8284, 4699, 4698, 4619
8285, 4620, 4621, 4700
8286, 4700, 4699, 4620
8287, 4621, 4622, 4701
8288, 4701, 4700, 4621
8289, 4622, 4623, 4702
8290, 4702, 4701, 4622
8291, 4623, 4624, 4703
8292, 4703, 4702, 4623
8293, 4624, 4625, 4704
8294, 4704, 4703, 4624
8295, 4625, 4626, 4705
8296, 4705, 4704, 4625
8297, 4626, 4627, 4706
8298, 4706, 4705, 4626
8299, 4627, 4628, 4707
8300, 4707, 4706, 4627
8301, 4628, 4629, 4708
8302, 4708, 4707, 4628
8303, 4629, 4630, 4709
8304, 4709, 4708, 4629
8305, 4630, 4631, 4710
8306, 4710, 4709, 4630
8307, 4631, 4632, 4711
8308, 4711, 4710, 4631
8309, 4632, 4633, 4712
8310, 4712, 4711, 4632
8311, 4633, 4634, 4713
8312, 4713, 4712, 4633
8313, 4634, 4635, 4714
8314, 4714, 4713, 4634
8315, 4635, 4636, 4715
8316, 4715, 4714, 4635
8317, 4636, 4637, 4716
8318, 4716, 4715, 4636
8319, 4637,  502,  503
8320,  503, 4716, 4637
8321,  597, 4638, 4717
8322, 4717,  596,  597
8323, 4638, 4639, 4718
8324, 4718, 4717, 4638
8325, 4639, 4640, 4719
8326, 4719, 4718, 4639
8327, 4640, 4641, 4720
8328, 4720, 4719, 4640
8329, 4641, 4642, 4721
8330, 4721, 4720, 4641
8331, 4642, 4643, 4722
8332, 4722, 4721, 4642
8333, 4643, 4644, 4723
8334, 4723, 4722, 4643
8335, 4644, 4645, 4724
8336, 4724, 4723, 4644
8337, 4645, 4646, 4725
8338, 4725, 4724, 4645
8339, 4646, 4647, 4726
8340, 4726, 4725, 4646
8341, 4647, 4648, 4727
8342, 4727, 4726, 4647
8343, 4648, 4649, 4728
8344, 4728, 4727, 4648
8345, 4649, 4650, 4729
8346, 4729, 4728, 4649
8347, 4650, 4651, 4730
8348, 4730, 4729, 4650
8349, 4651, 4652, 4731
8350, 4731, 4730, 4651
8351, 4652, 4653, 4732
8352, 4732, 4731, 4652
8353, 4653, 4654, 4733
8354, 4733, 4732, 4653
8355, 4654, 4655, 4734
8356, 4734, 4733, 4654
8357, 4655, 4656, 4735
8358, 4735, 4734, 4655
8359, 4656, 4657, 4736
8360, 4736, 4735, 4656
8361, 4657, 4658, 4737
8362, 4737, 4736, 4657
8363, 4658, 4659, 4738
8364, 4738, 4737, 4658
8365, 4659, 4660, 4739
8366, 4739, 4738, 4659
8367, 4660, 4661, 4740
8368, 4740, 4739, 4660
8369, 4661, 4662, 4741
8370, 4741, 4740, 4661
8371, 4662, 4663, 4742
8372, 4742, 4741, 4662
8373, 4663, 4664, 4743
8374, 4743, 4742, 4663
8375, 4664, 4665, 4744
8376, 4744, 4743, 4664
8377, 4665, 4666, 4745
8378, 4745, 4744, 4665
8379, 4666, 4667, 4746
8380, 4746, 4745, 4666
8381, 4667, 4668, 4747
8382, 4747, 4746, 4667
8383, 4668, 4669, 4748
8384, 4748, 4747, 4668
8385, 4669, 4670, 4749
8386, 4749, 4748, 4669
8387, 4670, 4671, 4750
8388, 4750, 4749, 4670
8389, 4671, 4672, 4751
8390, 4751, 4750, 4671
8391, 4672, 4673, 4752
8392, 4752, 4751, 4672
8393, 4673, 4674, 4753
8394, 4753, 4752, 4673
8395, 4674, 4675, 4754
8396, 4754, 4753, 4674
8397, 4675, 4676, 4755
8398, 4755, 4754, 4675
8399, 4676, 4677, 4756
8400, 4756, 4755, 4676
8401, 4677, 4678, 4757
8402, 4757, 4756, 4677
8403, 4678, 4679, 4758
8404, 4758, 4757, 4678
8405, 4679, 4680, 4759
8406, 4759, 4758, 4679
8407, 4680, 4681, 4760
8408, 4760, 4759, 4680
8409, 4681, 4682, 4761
8410, 4761, 4760, 4681
8411, 4682, 4683, 4762
8412, 4762, 4761, 4682
8413, 4683, 4684, 4763
8414, 4763, 4762, 4683
8415, 4684, 4685, 4764
8416, 4764, 4763, 4684
8417, 4685, 4686, 4765
8418, 4765, 4764, 4685
8419, 4686, 4687, 4766
8420, 4766, 4765, 4686
8421, 4687, 4688, 4767
8422, 4767, 4766, 4687
8423, 4688, 4689, 4768
8424, 4768, 4767, 4688
8425, 4689, 4690, 4769
8426, 4769, 4768, 4689
8427, 4690, 4691, 4770
8428, 4770, 4769, 4690
8429, 4691, 4692, 4771
8430, 4771, 4770, 4691
8431, 4692, 4693, 4772
8432, 4772, 4771, 4692
8433, 4693, 4694, 4773
8434, 4773, 4772, 4693
8435, 4694, 4695, 4774
8436, 4774, 4773, 4694
8437, 4695, 4696, 4775
8438, 4775, 4774, 4695
8439, 4696, 4697, 4776
8440, 4776, 4775, 4696
8441, 4697, 4698, 4777
8442, 4777, 4776, 4697
8443, 4698, 4699, 4778
8444, 4778, 4777, 4698
8445, 4699, 4700, 4779
8446, 4779, 4778, 4699
8447, 4700, 4701, 4780
8448, 4780, 4779, 4700
8449, 4701, 4702, 4781
8450, 4781, 4780, 4701
8451, 4702, 4703, 4782
8452, 4782, 4781, 4702
8453, 4703, 4704, 4783
8454, 4783, 4782, 4703
8455, 4704, 4705, 4784
8456, 4784, 4783, 4704
8457, 4705, 4706, 4785
8458, 4785, 4784, 4705
8459, 4706, 4707, 4786
8460, 4786, 4785, 4706
8461, 4707, 4708, 4787
8462, 4787, 4786, 4707
8463, 4708, 4709, 4788
8464, 4788, 4787, 4708
8465, 4709, 4710, 4789
8466, 4789, 4788, 4709
8467, 4710, 4711, 4790
8468, 4790, 4789, 4710
8469, 4711, 4712, 4791
8470, 4791, 4790, 4711
8471, 4712, 4713, 4792
8472, 4792, 4791, 4712
8473, 4713, 4714, 4793
8474, 4793, 4792, 4713
8475, 4714, 4715, 4794
8476, 4794, 4793, 4714
8477, 4715, 4716, 4795
8478, 4795, 4794, 4715
8479, 4716,  503,  504
8480,  504, 4795, 4716
8481,  596, 4717, 4796
8482, 4796,  595,  596
8483, 4717, 4718, 4797
8484, 4797, 4796, 4717
8485, 4718, 4719, 4798
8486, 4798, 4797, 4718
8487, 4719, 4720, 4799
8488, 4799, 4798, 4719
8489, 4720, 4721, 4800
8490, 4800, 4799, 4720
8491, 4721, 4722, 4801
8492, 4801, 4800, 4721
8493, 4722, 4723, 4802
8494, 4802, 4801, 4722
8495, 4723, 4724, 4803
8496, 4803, 4802, 4723
8497, 4724, 4725, 4804
8498, 4804, 4803, 4724
8499, 4725, 4726, 4805
8500, 4805, 4804, 4725
8501, 4726, 4727, 4806
8502, 4806, 4805, 4726
8503, 4727, 4728, 4807
8504, 4807, 4806, 4727
8505, 4728, 4729, 4808
8506, 4808, 4807, 4728
8507, 4729, 4730, 4809
8508, 4809, 4808, 4729
8509, 4730, 4731, 4810
8510, 4810, 4809, 4730
8511, 4731, 4732, 4811
8512, 4811, 4810, 4731
8513, 4732, 4733, 4812
8514, 4812, 4811, 4732
8515, 4733, 4734, 4813
8516, 4813, 4812, 4733
8517, 4734, 4735, 4814
8518, 4814, 4813, 4734
8519, 4735, 4736, 4815
8520, 4815, 4814, 4735
8521, 4736, 4737, 4816
8522, 4816, 4815, 4736
8523, 4737, 4738, 4817
8524, 4817, 4816, 4737
8525, 4738, 4739, 4818
8526, 4818, 4817, 4738
8527, 4739, 4740, 4819
8528, 4819, 4818, 4739
8529, 4740, 4741, 4820
8530, 4820, 4819, 4740
8531, 4741, 4742, 4821
8532, 4821, 4820, 4741
8533, 4742, 4743, 4822
8534, 4822, 4821, 4742
8535, 4743, 4744, 4823
8536, 4823, 4822, 4743
8537, 4744, 4745, 4824
8538, 4824, 4823, 4744
8539, 4745, 4746, 4825
8540, 4825, 4824, 4745
8541, 4746, 4747, 4826
8542, 4826, 4825, 4746
8543, 4747, 4748, 4827
8544, 4827, 4826, 4747
8545, 4748, 4749, 4828
8546, 4828, 4827, 4748
8547, 4749, 4750, 4829
8548, 4829, 4828, 4749
8549, 4750, 4751, 4830
8550, 4830, 4829, 4750
8551, 4751, 4752, 4831
8552, 4831, 4830, 4751
8553, 4752, 4753, 4832
8554, 4832, 4831, 4752
8555, 4753, 4754, 4833
8556, 4833, 4832, 4753
8557, 4754, 4755, 4834
8558, 4834, 4833, 4754
8559, 4755, 4756, 4835
8560, 4835, 4834, 4755
8561, 4756, 4757, 4836
8562, 4836, 4835, 4756
8563, 4757, 4758, 4837
8564, 4837, 4836, 4757
8565, 4758, 4759, 4838
8566, 4838, 4837, 4758
8567, 4759, 4760, 4839
8568, 4839, 4838, 4759
8569, 4760, 4761, 4840
8570, 4840, 4839, 4760
8571, 4761, 4762, 4841
8572, 4841, 4840, 4761
8573, 4762, 4763, 4842
8574, 4842, 4841, 4762
8575, 4763, 4764, 4843
8576, 4843, 4842, 4763
8577, 4764, 4765, 4844
8578, 4844, 4843, 4764
8579, 4765, 4766, 4845
8580, 4845, 4844, 4765
8581, 4766, 4767, 4846
8582, 4846, 4845, 4766
8583, 4767, 4768, 4847
8584, 4847, 4846, 4767
8585, 4768, 4769, 4848
8586, 4848, 4847, 4768
8587, 4769, 4770, 4849
8588, 4849, 4848, 4769
8589, 4770, 4771, 4850
8590, 4850, 4849, 4770
8591, 4771, 4772, 4851
8592, 4851, 4850, 4771
8593, 4772, 4773, 4852
8594, 4852, 4851, 4772
8595, 4773, 4774, 4853
8596, 4853, 4852, 4773
8597, 4774, 4775, 4854
8598, 4854, 4853, 4774
8599, 4775, 4776, 4855
8600, 4855, 4854, 4775
8601, 4776, 4777, 4856
8602, 4856, 4855, 4776
8603, 4777, 4778, 4857
8604, 4857, 4856, 4777
8605, 4778, 4779, 4858
8606, 4858, 4857, 4778
8607, 4779, 4780, 4859
8608, 4859, 4858, 4779
8609, 4780, 4781, 4860
8610, 4860, 4859, 4780
8611, 4781, 4782, 4861
8612, 4861, 4860, 4781
8613, 4782, 4783, 4862
8614, 4862, 4861, 4782
8615, 4783, 4784, 4863
8616, 4863, 4862, 4783
8617, 4784, 4785, 4864
8618, 4864, 4863, 4784
8619, 4785, 4786, 4865
8620, 4865, 4864, 4785
8621, 4786, 4787, 4866
8622, 4866, 4865, 4786
8623, 4787, 4788, 4867
8624, 4867, 4866, 4787
8625, 4788, 4789, 4868
8626, 4868, 4867, 4788
8627, 4789, 4790, 4869
8628, 4869, 4868, 4789
8629, 4790, 4791, 4870
8630, 4870, 4869, 4790
8631, 4791, 4792, 4871
8632, 4871, 4870, 4791
8633, 4792, 4793, 4872
8634, 4872, 4871, 4792
8635, 4793, 4794, 4873
8636, 4873, 4872, 4793
8637, 4794, 4795, 4874
8638, 4874, 4873, 4794
8639, 4795,  504,  505
8640,  505, 4874, 4795
8641,  595, 4796, 4875
8642, 4875,  594,  595
8643, 4796, 4797, 4876
8644, 4876, 4875, 4796
8645, 4797, 4798, 4877
8646, 4877, 4876, 4797
8647, 4798, 4799, 4878
8648, 4878, 4877, 4798
8649, 4799, 4800, 4879
8650, 4879, 4878, 4799
8651, 4800, 4801, 4880
8652, 4880, 4879, 4800
8653, 4801, 4802, 4881
8654, 4881, 4880, 4801
8655, 4802, 4803, 4882
8656, 4882, 4881, 4802
8657, 4803, 4804, 4883
8658, 4883, 4882, 4803
8659, 4804, 4805, 4884
8660, 4884, 4883, 4804
8661, 4805, 4806, 4885
8662, 4885, 4884, 4805
8663, 4806, 4807, 4886
8664, 4886, 4885, 4806
8665, 4807, 4808, 4887
8666, 4887, 4886, 4807
8667, 4808, 4809, 4888
8668, 4888, 4887, 4808
8669, 4809, 4810, 4889
8670, 4889, 4888, 4809
8671, 4810, 4811, 4890
8672, 4890, 4889, 4810
8673, 4811, 4812, 4891
8674, 4891, 4890, 4811
8675, 4812, 4813, 4892
8676, 4892, 4891, 4812
8677, 4813, 4814, 4893
8678, 4893, 4892, 4813
8679, 4814, 4815, 4894
8680, 4894, 4893, 4814
8681, 4815, 4816, 4895
8682, 4895, 4894, 4815
8683, 4816, 4817, 4896
8684, 4896, 4895, 4816
8685, 4817, 4818, 4897
8686, 4897, 4896, 4817
8687, 4818, 4819, 4898
8688, 4898, 4897, 4818
8689, 4819, 4820, 4899
8690, 4899, 4898, 4819
8691, 4820, 4821, 4900
8692, 4900, 4899, 4820
8693, 4821, 4822, 4901
8694, 4901, 4900, 4821
8695, 4822, 4823, 4902
8696, 4902, 4901, 4822
8697, 4823, 4824, 4903
8698, 4903, 4902, 4823
8699, 4824, 4825, 4904
8700, 4904, 4903, 4824
8701, 4825, 4826, 4905
8702, 4905, 4904, 4825
8703, 4826, 4827, 4906
8704, 4906, 4905, 4826
8705, 4827, 4828, 4907
8706, 4907, 4906, 4827
8707, 4828, 4829, 4908
8708, 4908, 4907, 4828
8709, 4829, 4830, 4909
8710, 4909, 4908, 4829
8711, 4830, 4831, 4910
8712, 4910, 4909, 4830
8713, 4831, 4832, 4911
8714, 4911, 4910, 4831
8715, 4832, 4833, 4912
8716, 4912, 4911, 4832
8717, 4833, 4834, 4913
8718, 4913, 4912, 4833
8719, 4834, 4835, 4914
8720, 4914, 4913, 4834
8721, 4835, 4836, 4915
8722, 4915, 4914, 4835
8723, 4836, 4837, 4916
8724, 4916, 4915, 4836
8725, 4837, 4838, 4917
8726, 4917, 4916, 4837
8727, 4838, 4839, 4918
8728, 4918, 4917, 4838
8729, 4839, 4840, 4919
8730, 4919, 4918, 4839
8731, 4840, 4841, 4920
8732, 4920, 4919, 4840
8733, 4841, 4842, 4921
8734, 4921, 4920, 4841
8735, 4842, 4843, 4922
8736, 4922, 4921, 4842
8737, 4843, 4844, 4923
8738, 4923, 4922, 4843
8739, 4844, 4845, 4924
8740, 4924, 4923, 4844
8741, 4845, 4846, 4925
8742, 4925, 4924, 4845
8743, 4846, 4847, 4926
8744, 4926, 4925, 4846
8745, 4847, 4848, 4927
8746, 4927, 4926, 4847
8747, 4848, 4849, 4928
8748, 4928, 4927, 4848
8749, 4849, 4850, 4929
8750, 4929, 4928, 4849
8751, 4850, 4851, 4930
8752, 4930, 4929, 4850
8753, 4851, 4852, 4931
8754, 4931, 4930, 4851
8755, 4852, 4853, 4932
8756, 4932, 4931, 4852
8757, 4853, 4854, 4933
8758, 4933, 4932, 4853
8759, 4854, 4855, 4934
8760, 4934, 4933, 4854
8761, 4855, 4856, 4935
8762, 4935, 4934, 4855
8763, 4856, 4857, 4936
8764, 4936, 4935, 4856
8765, 4857, 4858, 4937
8766, 4937, 4936, 4857
8767, 4858, 4859, 4938
8768, 4938, 4937, 4858
8769, 4859, 4860, 4939
8770, 4939, 4938, 4859
8771, 4860, 4861, 4940
8772, 4940, 4939, 4860
8773, 4861, 4862, 4941
8774, 4941, 4940, 4861
8775, 4862, 4863, 4942
8776, 4942, 4941, 4862
8777, 4863, 4864, 4943
8778, 4943, 4942, 4863
8779, 4864, 4865, 4944
8780, 4944, 4943, 4864
8781, 4865, 4866, 4945
8782, 4945, 4944, 4865
8783, 4866, 4867, 4946
8784, 4946, 4945, 4866
8785, 4867, 4868, 4947
8786, 4947, 4946, 4867
8787, 4868, 4869, 4948
8788, 4948, 4947, 4868
8789, 4869, 4870, 4949
8790, 4949, 4948, 4869
8791, 4870, 4871, 4950
8792, 4950, 4949, 4870
8793, 4871, 4872, 4951
8794, 4951, 4950, 4871
8795, 4872, 4873, 4952
8796, 4952, 4951, 4872
8797, 4873, 4874, 4953
8798, 4953, 4952, 4873
8799, 4874,  505,  506
8800,  506, 4953, 4874
8801,  594, 4875, 4954
8802, 4954,  593,  594
8803, 4875, 4876, 4955
8804, 4955, 4954, 4875
8805, 4876, 4877, 4956
8806, 4956, 4955, 4876
8807, 4877, 4878, 4957
8808, 4957, 4956, 4877
8809, 4878, 4879, 4958
8810, 4958, 4957, 4878
8811, 4879, 4880, 4959
8812, 4959, 4958, 4879
8813, 4880, 4881, 4960
8814, 4960, 4959, 4880
8815, 4881, 4882, 4961
8816, 4961, 4960, 4881
8817, 4882, 4883, 4962
8818, 4962, 4961, 4882
8819, 4883, 4884, 4963
8820, 4963, 4962, 4883
8821, 4884, 4885, 4964
8822, 4964, 4963, 4884
8823, 4885, 4886, 4965
8824, 4965, 4964, 4885
8825, 4886, 4887, 4966
8826, 4966, 4965, 4886
8827, 4887, 4888, 4967
8828, 4967, 4966, 4887
8829, 4888, 4889, 4968
8830, 4968, 4967, 4888
8831, 4889, 4890, 4969
8832, 4969, 4968, 4889
8833, 4890, 4891, 4970
8834, 4970, 4969, 4890
8835, 4891, 4892, 4971
8836, 4971, 4970, 4891
8837, 4892, 4893, 4972
8838, 4972, 4971, 4892
8839, 4893, 4894, 4973
8840, 4973, 4972, 4893
8841, 4894, 4895, 4974
8842, 4974, 4973, 4894
8843, 4895, 4896, 4975
8844, 4975, 4974, 4895
8845, 4896, 4897, 4976
8846, 4976, 4975, 4896
8847, 4897, 4898, 4977
8848, 4977, 4976, 4897
8849, 4898, 4899, 4978
8850, 4978, 4977, 4898
8851, 4899, 4900, 4979
8852, 4979, 4978, 4899
8853, 4900, 4901, 4980
8854, 4980, 4979, 4900
8855, 4901, 4902, 4981
8856, 4981, 4980, 4901
8857, 4902, 4903, 4982
8858, 4982, 4981, 4902
8859, 4903, 4904, 4983
8860, 4983, 4982, 4903
8861, 4904, 4905, 4984
8862, 4984, 4983, 4904
8863, 4905, 4906, 4985
8864, 4985, 4984, 4905
8865, 4906, 4907, 4986
8866, 4986, 4985, 4906
8867, 4907, 4908, 4987
8868, 4987, 4986, 4907
8869, 4908, 4909, 4988
8870, 4988, 4987, 4908
8871, 4909, 4910, 4989
8872, 4989, 4988, 4909
8873, 4910, 4911, 4990
8874, 4990, 4989, 4910
8875, 4911, 4912, 4991
8876, 4991, 4990, 4911
8877, 4912, 4913, 4992
8878, 4992, 4991, 4912
8879, 4913, 4914, 4993
8880, 4993, 4992, 4913
8881, 4914, 4915, 4994
8882, 4994, 4993, 4914
8883, 4915, 4916, 4995
8884, 4995, 4994, 4915
8885, 4916, 4917, 4996
8886, 4996, 4995, 4916
8887, 4917, 4918, 4997
8888, 4997, 4996, 4917
8889, 4918, 4919, 4998
8890, 4998, 4997, 4918
8891, 4919, 4920, 4999
8892, 4999, 4998, 4919
8893, 4920, 4921, 5000
8894, 5000, 4999, 4920
8895, 4921, 4922, 5001
8896, 5001, 5000, 4921
8897, 4922, 4923, 5002
8898, 5002, 5001, 4922
8899, 4923, 4924, 5003
8900, 5003, 5002, 4923
8901, 4924, 4925, 5004
8902, 5004, 5003, 4924
8903, 4925, 4926, 5005
8904, 5005, 5004, 4925
8905, 4926, 4927, 5006
8906, 5006, 5005, 4926
8907, 4927, 4928, 5007
8908, 5007, 5006, 4927
8909, 4928, 4929, 5008
8910, 5008, 5007, 4928
8911, 4929, 4930, 5009
8912, 5009, 5008, 4929
8913, 4930, 4931, 5010
8914, 5010, 5009, 4930
8915, 4931, 4932, 5011
8916, 5011, 5010, 4931
8917, 4932, 4933, 5012
8918, 5012, 5011, 4932
8919, 4933, 4934, 5013
8920, 5013, 5012, 4933
8921, 4934, 4935, 5014
8922, 5014, 5013, 4934
8923, 4935, 4936, 5015
8924, 5015, 5014, 4935
8925, 4936, 4937, 5016
8926, 5016, 5015, 4936
8927, 4937, 4938, 5017
8928, 5017, 5016, 4937
8929, 4938, 4939, 5018
8930, 5018, 5017, 4938
8931, 4939, 4940, 5019
8932, 5019, 5018, 4939
8933, 4940, 4941, 5020
8934, 5020, 5019, 4940
8935, 4941, 4942, 5021
8936, 5021, 5020, 4941
8937, 4942, 4943, 5022
8938, 5022, 5021, 4942
8939, 4943, 4944, 5023
8940, 5023, 5022, 4943
8941, 4944, 4945, 5024
8942, 5024, 5023, 4944
8943, 4945, 4946, 5025
8944, 5025, 5024, 4945
8945, 4946, 4947, 5026
8946, 5026, 5025, 4946
8947, 4947, 4948, 5027
8948, 5027, 5026, 4947
8949, 4948, 4949, 5028
8950, 5028, 5027, 4948
8951, 4949, 4950, 5029
8952, 5029, 5028, 4949
8953, 4950, 4951, 5030
8954, 5030, 5029, 4950
8955, 4951, 4952, 5031
8956, 5031, 5030, 4951
8957, 4952, 4953, 5032
8958, 5032, 5031, 4952
8959, 4953,  506,  507
8960,  507, 5032, 4953
8961,  593, 4954, 5033
8962, 5033,  592,  593
8963, 4954, 4955, 5034
8964, 5034, 5033, 4954
8965, 4955, 4956, 5035
8966, 5035, 5034, 4955
8967, 4956, 4957, 5036
8968, 5036, 5035, 4956
8969, 4957, 4958, 5037
8970, 5037, 5036, 4957
8971, 4958, 4959, 5038
8972, 5038, 5037, 4958
8973, 4959, 4960, 5039
8974, 5039, 5038, 4959
8975, 4960, 4961, 5040
8976, 5040, 5039, 4960
8977, 4961, 4962, 5041
8978, 5041, 5040, 4961
8979, 4962, 4963, 5042
8980, 5042, 5041, 4962
8981, 4963, 4964, 5043
8982, 5043, 5042, 4963
8983, 4964, 4965, 5044
8984, 5044, 5043, 4964
8985, 4965, 4966, 5045
8986, 5045, 5044, 4965
8987, 4966, 4967, 5046
8988, 5046, 5045, 4966
8989, 4967, 4968, 5047
8990, 5047, 5046, 4967
8991, 4968, 4969, 5048
8992, 5048, 5047, 4968
8993, 4969, 4970, 5049
8994, 5049, 5048, 4969
8995, 4970, 4971, 5050
8996, 5050, 5049, 4970
8997, 4971, 4972, 5051
8998, 5051, 5050, 4971
8999, 4972, 4973, 5052
9000, 5052, 5051, 4972
9001, 4973, 4974, 5053
9002, 5053, 5052, 4973
9003, 4974, 4975, 5054
9004, 5054, 5053, 4974
9005, 4975, 4976, 5055
9006, 5055, 5054, 4975
9007, 4976, 4977, 5056
9008, 5056, 5055, 4976
9009, 4977, 4978, 5057
9010, 5057, 5056, 4977
9011, 4978, 4979, 5058
9012, 5058, 5057, 4978
9013, 4979, 4980, 5059
9014, 5059, 5058, 4979
9015, 4980, 4981, 5060
9016, 5060, 5059, 4980
9017, 4981, 4982, 5061
9018, 5061, 5060, 4981
9019, 4982, 4983, 5062
9020, 5062, 5061, 4982
9021, 4983, 4984, 5063
9022, 5063, 5062, 4983
9023, 4984, 4985, 5064
9024, 5064, 5063, 4984
9025, 4985, 4986, 5065
9026, 5065, 5064, 4985
9027, 4986, 4987, 5066
9028, 5066, 5065, 4986
9029, 4987, 4988, 5067
9030, 5067, 5066, 4987
9031, 4988, 4989, 5068
9032, 5068, 5067, 4988
9033, 4989, 4990, 5069
9034, 5069, 5068, 4989
9035, 4990, 4991, 5070
9036, 5070, 5069, 4990
9037, 4991, 4992, 5071
9038, 5071, 5070, 4991
9039, 4992, 4993, 5072
9040, 5072, 5071, 4992
9041, 4993, 4994, 5073
9042, 5073, 5072, 4993
9043, 4994, 4995, 5074
9044, 5074, 5073, 4994
9045, 4995, 4996, 5075
9046, 5075, 5074, 4995
9047, 4996, 4997, 5076
9048, 5076, 5075, 4996
9049, 4997, 4998, 5077
9050, 5077, 5076, 4997
9051, 4998, 4999, 5078
9052, 5078, 5077, 4998
9053, 4999, 5000, 5079
9054, 5079, 5078, 4999
9055, 5000, 5001, 5080
9056, 5080, 5079, 5000
9057, 5001, 5002, 5081
9058, 5081, 5080, 5001
9059, 5002, 5003, 5082
9060, 5082, 5081, 5002
9061, 5003, 5004, 5083
9062, 5083, 5082, 5003
9063, 5004, 5005, 5084
9064, 5084, 5083, 5004
9065, 5005, 5006, 5085
9066, 5085, 5084, 5005
9067, 5006, 5007, 5086
9068, 5086, 5085, 5006
9069, 5007, 5008, 5087
9070, 5087, 5086, 5007
9071, 5008, 5009, 5088
9072, 5088, 5087, 5008
9073, 5009, 5010, 5089
9074, 5089, 5088, 5009
9075, 5010, 5011, 5090
9076, 5090, 5089, 5010
9077, 5011, 5012, 5091
9078, 5091, 5090, 5011
9079, 5012, 5013, 5092
9080, 5092, 5091, 5012
9081, 5013, 5014, 5093
9082, 5093, 5092, 5013
9083, 5014, 5015, 5094
9084, 5094, 5093, 5014
9085, 5015, 5016, 5095
9086, 5095, 5094, 5015
9087, 5016, 5017, 5096
9088, 5096, 5095, 5016
9089, 5017, 5018, 5097
9090, 5097, 5096, 5017
9091, 5018, 5019, 5098
9092, 5098, 5097, 5018
9093, 5019, 5020, 5099
9094, 5099, 5098, 5019
9095, 5020, 5021, 5100
9096, 5100, 5099, 5020
9097, 5021, 5022, 5101
9098, 5101, 5100, 5021
9099, 5022, 5023, 5102
9100, 5102, 5101, 5022
9101, 5023, 5024, 5103
9102, 5103, 5102, 5023
9103, 5024, 5025, 5104
9104, 5104, 5103, 5024
9105, 5025, 5026, 5105
9106, 5105, 5104, 5025
9107, 5026, 5027, 5106
9108, 5106, 5105, 5026
9109, 5027, 5028, 5107
9110, 5107, 5106, 5027
9111, 5028, 5029, 5108
9112, 5108, 5107, 5028
9113, 5029, 5030, 5109
9114, 5109, 5108, 5029
9115, 5030, 5031, 5110
9116, 5110, 5109, 5030
9117, 5031, 5032, 5111
9118, 5111, 5110, 5031
9119, 5032,  507,  508
9120,  508, 5111, 5032
9121,  592, 5033, 5112
9122, 5112,  591,  592
9123, 5033, 5034, 5113
9124, 5113, 5112, 5033
9125, 5034, 5035, 5114
9126, 5114, 5113, 5034
9127, 5035, 5036, 5115
9128, 5115, 5114, 5035
9129, 5036, 5037, 5116
9130, 5116, 5115, 5036
9131, 5037, 5038, 5117
9132, 5117, 5116, 5037
9133, 5038, 5039, 5118
9134, 5118, 5117, 5038
9135, 5039, 5040, 5119
9136, 5119, 5118, 5039
9137, 5040, 5041, 5120
9138, 5120, 5119, 5040
9139, 5041, 5042, 5121
9140, 5121, 5120, 5041
9141, 5042, 5043, 5122
9142, 5122, 5121, 5042
9143, 5043, 5044, 5123
9144, 5123, 5122, 5043
9145, 5044, 5045, 5124
9146, 5124, 5123, 5044
9147, 5045, 5046, 5125
9148, 5125, 5124, 5045
9149, 5046, 5047, 5126
9150, 5126, 5125, 5046
9151, 5047, 5048, 5127
9152, 5127, 5126, 5047
9153, 5048, 5049, 5128
9154, 5128, 5127, 5048
9155, 5049, 5050, 5129
9156, 5129, 5128, 5049
9157, 5050, 5051, 5130
9158, 5130, 5129, 5050
9159, 5051, 5052, 5131
9160, 5131, 5130, 5051
9161, 5052, 5053, 5132
9162, 5132, 5131, 5052
9163, 5053, 5054, 5133
9164, 5133, 5132, 5053
9165, 5054, 5055, 5134
9166, 5134, 5133, 5054
9167, 5055, 5056, 5135
9168, 5135, 5134, 5055
9169, 5056, 5057, 5136
9170, 5136, 5135, 5056
9171, 5057, 5058, 5137
9172, 5137, 5136, 5057
9173, 5058, 5059, 5138
9174, 5138, 5137, 5058
9175, 5059, 5060, 5139
9176, 5139, 5138, 5059
9177, 5060, 5061, 5140
9178, 5140, 5139, 5060
9179, 5061, 5062, 5141
9180, 5141, 5140, 5061
9181, 5062, 5063, 5142
9182, 5142, 5141, 5062
9183, 5063, 5064, 5143
9184, 5143, 5142, 5063
9185, 5064, 5065, 5144
9186, 5144, 5143, 5064
9187, 5065, 5066, 5145
9188, 5145, 5144, 5065
9189, 5066, 5067, 5146
9190, 5146, 5145, 5066
9191, 5067, 5068, 5147
9192, 5147, 5146, 5067
9193, 5068, 5069, 5148
9194, 5148, 5147, 5068
9195, 5069, 5070, 5149
9196, 5149, 5148, 5069
9197, 5070, 5071, 5150
9198, 5150, 5149, 5070
9199, 5071, 5072, 5151
9200, 5151, 5150, 5071
9201, 5072, 5073, 5152
9202, 5152, 5151, 5072
9203, 5073, 5074, 5153
9204, 5153, 5152, 5073
9205, 5074, 5075, 5154
9206, 5154, 5153, 5074
9207, 5075, 5076, 5155
9208, 5155, 5154, 5075
9209, 5076, 5077, 5156
9210, 5156, 5155, 5076
9211, 5077, 5078, 5157
9212, 5157, 5156, 5077
9213, 5078, 5079, 5158
9214, 5158, 5157, 5078
9215, 5079, 5080, 5159
9216, 5159, 5158, 5079
9217, 5080, 5081, 5160
9218, 5160, 5159, 5080
9219, 5081, 5082, 5161
9220, 5161, 5160, 5081
9221, 5082, 5083, 5162
9222, 5162, 5161, 5082
9223, 5083, 5084, 5163
9224, 5163, 5162, 5083
9225, 5084, 5085, 5164
9226, 5164, 5163, 5084
9227, 5085, 5086, 5165
9228, 5165, 5164, 5085
9229, 5086, 5087, 5166
9230, 5166, 5165, 5086
9231, 5087, 5088, 5167
9232, 5167, 5166, 5087
9233, 5088, 5089, 5168
9234, 5168, 5167, 5088
9235, 5089, 5090, 5169
9236, 5169, 5168, 5089
9237, 5090, 5091, 5170
9238, 5170, 5169, 5090
9239, 5091, 5092, 5171
9240, 5171, 5170, 5091
9241, 5092, 5093, 5172
9242, 5172, 5171, 5092
9243, 5093, 5094, 5173
9244, 5173, 5172, 5093
9245, 5094, 5095, 5174
9246, 5174, 5173, 5094
9247, 5095, 5096, 5175
9248, 5175, 5174, 5095
9249, 5096, 5097, 5176
9250, 5176, 5175, 5096
9251, 5097, 5098, 5177
9252, 5177, 5176, 5097
9253, 5098, 5099, 5178
9254, 5178, 5177, 5098
9255, 5099, 5100, 5179
9256, 5179, 5178, 5099
9257, 5100, 5101, 5180
9258, 5180, 5179, 5100
9259, 5101, 5102, 5181
9260, 5181, 5180, 5101
9261, 5102, 5103, 5182
9262, 5182, 5181, 5102
9263, 5103, 5104, 5183
9264, 5183, 5182, 5103
9265, 5104, 5105, 5184
9266, 5184, 5183, 5104
9267, 5105, 5106, 5185
9268, 5185, 5184, 5105
9269, 5106, 5107, 5186
9270, 5186, 5185, 5106
9271, 5107, 5108, 5187
9272, 5187, 5186, 5107
9273, 5108, 5109, 5188
9274, 5188, 5187, 5108
9275, 5109, 5110, 5189
9276, 5189, 5188, 5109
9277, 5110, 5111, 5190
9278, 5190, 5189, 5110
9279, 5111,  508,  509
9280,  509, 5190, 5111
9281,  591, 5112, 5191
9282, 5191,  590,  591
9283, 5112, 5113, 5192
9284, 5192, 5191, 5112
9285, 5113, 5114, 5193
9286, 5193, 5192, 5113
9287, 5114, 5115, 5194
9288, 5194, 5193, 5114
9289, 5115, 5116, 5195
9290, 5195, 5194, 5115
9291, 5116, 5117, 5196
9292, 5196, 5195, 5116
9293, 5117, 5118, 5197
9294, 5197, 5196, 5117
9295, 5118, 5119, 5198
9296, 5198, 5197, 5118
9297, 5119, 5120, 5199
9298, 5199, 5198, 5119
9299, 5120, 5121, 5200
9300, 5200, 5199, 5120
9301, 5121, 5122, 5201
9302, 5201, 5200, 5121
9303, 5122, 5123, 5202
9304, 5202, 5201, 5122
9305, 5123, 5124, 5203
9306, 5203, 5202, 5123
9307, 5124, 5125, 5204
9308, 5204, 5203, 5124
9309, 5125, 5126, 5205
9310, 5205, 5204, 5125
9311, 5126, 5127, 5206
9312, 5206, 5205, 5126
9313, 5127, 5128, 5207
9314, 5207, 5206, 5127
9315, 5128, 5129, 5208
9316, 5208, 5207, 5128
9317, 5129, 5130, 5209
9318, 5209, 5208, 5129
9319, 5130, 5131, 5210
9320, 5210, 5209, 5130
9321, 5131, 5132, 5211
9322, 5211, 5210, 5131
9323, 5132, 5133, 5212
9324, 5212, 5211, 5132
9325, 5133, 5134, 5213
9326, 5213, 5212, 5133
9327, 5134, 5135, 5214
9328, 5214, 5213, 5134
9329, 5135, 5136, 5215
9330, 5215, 5214, 5135
9331, 5136, 5137, 5216
9332, 5216, 5215, 5136
9333, 5137, 5138, 5217
9334, 5217, 5216, 5137
9335, 5138, 5139, 5218
9336, 5218, 5217, 5138
9337, 5139, 5140, 5219
9338, 5219, 5218, 5139
9339, 5140, 5141, 5220
9340, 5220, 5219, 5140
9341, 5141, 5142, 5221
9342, 5221, 5220, 5141
9343, 5142, 5143, 5222
9344, 5222, 5221, 5142
9345, 5143, 5144, 5223
9346, 5223, 5222, 5143
9347, 5144, 5145, 5224
9348, 5224, 5223, 5144
9349, 5145, 5146, 5225
9350, 5225, 5224, 5145
9351, 5146, 5147, 5226
9352, 5226, 5225, 5146
9353, 5147, 5148, 5227
9354, 5227, 5226, 5147
9355, 5148, 5149, 5228
9356, 5228, 5227, 5148
9357, 5149, 5150, 5229
9358, 5229, 5228, 5149
9359, 5150, 5151, 5230
9360, 5230, 5229, 5150
9361, 5151, 5152, 5231
9362, 5231, 5230, 5151
9363, 5152, 5153, 5232
9364, 5232, 5231, 5152
9365, 5153, 5154, 5233
9366, 5233, 5232, 5153
9367, 5154, 5155, 5234
9368, 5234, 5233, 5154
9369, 5155, 5156, 5235
9370, 5235, 5234, 5155
9371, 5156, 5157, 5236
9372, 5236, 5235, 5156
9373, 5157, 5158, 5237
9374, 5237, 5236, 5157
9375, 5158, 5159, 5238
9376, 5238, 5237, 5158
9377, 5159, 5160, 5239
9378, 5239, 5238, 5159
9379, 5160, 5161, 5240
9380, 5240, 5239, 5160
9381, 5161, 5162, 5241
9382, 5241, 5240, 5161
9383, 5162, 5163, 5242
9384, 5242, 5241, 5162
9385, 5163, 5164, 5243
9386, 5243, 5242, 5163
9387, 5164, 5165, 5244
9388, 5244, 5243, 5164
9389, 5165, 5166, 5245
9390, 5245, 5244, 5165
9391, 5166, 5167, 5246
9392, 5246, 5245, 5166
9393, 5167, 5168, 5247
9394, 5247, 5246, 5167
9395, 5168, 5169, 5248
9396, 5248, 5247, 5168
9397, 5169, 5170, 5249
9398, 5249, 5248, 5169
9399, 5170, 5171, 5250
9400, 5250, 5249, 5170
9401, 5171, 5172, 5251
9402, 5251, 5250, 5171
9403, 5172, 5173, 5252
9404, 5252, 5251, 5172
9405, 5173, 5174, 5253
9406, 5253, 5252, 5173
9407, 5174, 5175, 5254
9408, 5254, 5253, 5174
9409, 5175, 5176, 5255
9410, 5255, 5254, 5175
9411, 5176, 5177, 5256
9412, 5256, 5255, 5176
9413, 5177, 5178, 5257
9414, 5257, 5256, 5177
9415, 5178, 5179, 5258
9416, 5258, 5257, 5178
9417, 5179, 5180, 5259
9418, 5259, 5258, 5179
9419, 5180, 5181, 5260
9420, 5260, 5259, 5180
9421, 5181, 5182, 5261
9422, 5261, 5260, 5181
9423, 5182, 5183, 5262
9424, 5262, 5261, 5182
9425, 5183, 5184, 5263
9426, 5263, 5262, 5183
9427, 5184, 5185, 5264
9428, 5264, 5263, 5184
9429, 5185, 5186, 5265
9430, 5265, 5264, 5185
9431, 5186, 5187, 5266
9432, 5266, 5265, 5186
9433, 5187, 5188, 5267
9434, 5267, 5266, 5187
9435, 5188, 5189, 5268
9436, 5268, 5267, 5188
9437, 5189, 5190, 5269
9438, 5269, 5268, 5189
9439, 5190,  509,  510
9440,  510, 5269, 5190
9441,  590, 5191,  589
9442,  589,   12,  590
9443, 5191, 5192,  588
9444,  588,  589, 5191
9445, 5192, 5193,  587
9446,  587,  588, 5192
9447, 5193, 5194,  586
9448,  586,  587, 5193
9449, 5194, 5195,  585
9450,  585,  586, 5194
9451, 5195, 5196,  584
9452,  584,  585, 5195
9453, 5196, 5197,  583
9454,  583,  584, 5196
9455, 5197, 5198,  582
9456,  582,  583, 5197
9457, 5198, 5199,  581
9458,  581,  582, 5198
9459, 5199, 5200,  580
9460,  580,  581, 5199
9461, 5200, 5201,  579
9462,  579,  580, 5200
9463, 5201, 5202,  578
9464,  578,  579, 5201
9465, 5202, 5203,  577
9466,  577,  578, 5202
9467, 5203, 5204,  576
9468,  576,  577, 5203
9469, 5204, 5205,  575
9470,  575,  576, 5204
9471, 5205, 5206,  574
9472,  574,  575, 5205
9473, 5206, 5207,  573
9474,  573,  574, 5206
9475, 5207, 5208,  572
9476,  572,  573, 5207
9477, 5208, 5209,  571
9478,  571,  572, 5208
9479, 5209, 5210,  570
9480,  570,  571, 5209
9481, 5210, 5211,  569
9482,  569,  570, 5210
9483, 5211, 5212,  568
9484,  568,  569, 5211
9485, 5212, 5213,  567
9486,  567,  568, 5212
9487, 5213, 5214,  566
9488,  566,  567, 5213
9489, 5214, 5215,  565
9490,  565,  566, 5214
9491, 5215, 5216,  564
9492,  564,  565, 5215
9493, 5216, 5217,  563
9494,  563,  564, 5216
9495, 5217, 5218,  562
9496,  562,  563, 5217
9497, 5218, 5219,  561
9498,  561,  562, 5218
9499, 5219, 5220,  560
9500,  560,  561, 5219
9501, 5220, 5221,  559
9502,  559,  560, 5220
9503, 5221, 5222,  558
9504,  558,  559, 5221
9505, 5222, 5223,  557
9506,  557,  558, 5222
9507, 5223, 5224,  556
9508,  556,  557, 5223
9509, 5224, 5225,  555
9510,  555,  556, 5224
9511, 5225, 5226,  554
9512,  554,  555, 5225
9513, 5226, 5227,  553
9514,  553,  554, 5226
9515, 5227, 5228,  552
9516,  552,  553, 5227
9517, 5228, 5229,  551
9518,  551,  552, 5228
9519, 5229, 5230,  550
9520,  550,  551, 5229
9521, 5230, 5231,  549
9522,  549,  550, 5230
9523, 5231, 5232,  548
9524,  548,  549, 5231
9525, 5232, 5233,  547
9526,  547,  548, 5232
9527, 5233, 5234,  546
9528,  546,  547, 5233
9529, 5234, 5235,  545
9530,  545,  546, 5234
9531, 5235, 5236,  544
9532,  544,  545, 5235
9533, 5236, 5237,  543
9534,  543,  544, 5236
9535, 5237, 5238,  542
9536,  542,  543, 5237
9537, 5238, 5239,  541
9538,  541,  542, 5238
9539, 5239, 5240,  540
9540,  540,  541, 5239
9541, 5240, 5241,  539
9542,  539,  540, 5240
9543, 5241, 5242,  538
9544,  538,  539, 5241
9545, 5242, 5243,  537
9546,  537,  538, 5242
9547, 5243, 5244,  536
9548,  536,  537, 5243
9549, 5244, 5245,  535
9550,  535,  536, 5244
9551, 5245, 5246,  534
9552,  534,  535, 5245
9553, 5246, 5247,  533
9554,  533,  534, 5246
9555, 5247, 5248,  532
9556,  532,  533, 5247
9557, 5248, 5249,  531
9558,  531,  532, 5248
9559, 5249, 5250,  530
9560,  530,  531, 5249
9561, 5250, 5251,  529
9562,  529,  530, 5250
9563, 5251, 5252,  528
9564,  528,  529, 5251
9565, 5252, 5253,  527
9566,  527,  528, 5252
9567, 5253, 5254,  526
9568,  526,  527, 5253
9569, 5254, 5255,  525
9570,  525,  526, 5254
9571, 5255, 5256,  524
9572,  524,  525, 5255
9573, 5256, 5257,  523
9574,  523,  524, 5256
9575, 5257, 5258,  522
9576,  522,  523, 5257
9577, 5258, 5259,  521
9578,  521,  522, 5258
9579, 5259, 5260,  520
9580,  520,  521, 5259
9581, 5260, 5261,  519
9582,  519,  520, 5260
9583, 5261, 5262,  518
9584,  518,  519, 5261
9585, 5262, 5263,  517
9586,  517,  518, 5262
9587, 5263, 5264,  516
9588,  516,  517, 5263
9589, 5264, 5265,  515
9590,  515,  516, 5264
9591, 5265, 5266,  514
9592,  514,  515, 5265
9593, 5266, 5267,  513
9594,  513,  514, 5266
9595, 5267, 5268,  512
9596,  512,  513, 5267
9597, 5268, 5269,  511
9598,  511,  512, 5268
9599, 5269,  510,   11
9600,   11,  511, 5269
 9601,   13,  607, 5270
 9602, 5270,  715,   13
 9603,  607,  608, 5271
 9604, 5271, 5270,  607
 9605,  608,  609, 5272
 9606, 5272, 5271,  608
 9607,  609,  610, 5273
 9608, 5273, 5272,  609
 9609,  610,  611, 5274
 9610, 5274, 5273,  610
 9611,  611,  612, 5275
 9612, 5275, 5274,  611
 9613,  612,  613, 5276
 9614, 5276, 5275,  612
 9615,  613,  614, 5277
 9616, 5277, 5276,  613
 9617,  614,  615, 5278
 9618, 5278, 5277,  614
 9619,  615,  616, 5279
 9620, 5279, 5278,  615
 9621,  616,  617, 5280
 9622, 5280, 5279,  616
 9623,  617,  618, 5281
 9624, 5281, 5280,  617
 9625,  618,  619, 5282
 9626, 5282, 5281,  618
 9627,  619,  620, 5283
 9628, 5283, 5282,  619
 9629,  620,  621, 5284
 9630, 5284, 5283,  620
 9631,  621,  622, 5285
 9632, 5285, 5284,  621
 9633,  622,  623, 5286
 9634, 5286, 5285,  622
 9635,  623,  624, 5287
 9636, 5287, 5286,  623
 9637,  624,  625, 5288
 9638, 5288, 5287,  624
 9639,  625,  626, 5289
 9640, 5289, 5288,  625
 9641,  626,  627, 5290
 9642, 5290, 5289,  626
 9643,  627,  628, 5291
 9644, 5291, 5290,  627
 9645,  628,  629, 5292
 9646, 5292, 5291,  628
 9647,  629,  630, 5293
 9648, 5293, 5292,  629
 9649,  630,  631, 5294
 9650, 5294, 5293,  630
 9651,  631,  632, 5295
 9652, 5295, 5294,  631
 9653,  632,  633, 5296
 9654, 5296, 5295,  632
 9655,  633,  634, 5297
 9656, 5297, 5296,  633
 9657,  634,  635, 5298
 9658, 5298, 5297,  634
 9659,  635,  636, 5299
 9660, 5299, 5298,  635
 9661,  636,  637, 5300
 9662, 5300, 5299,  636
 9663,  637,  638, 5301
 9664, 5301, 5300,  637
 9665,  638,  639, 5302
 9666, 5302, 5301,  638
 9667,  639,  640, 5303
 9668, 5303, 5302,  639
 9669,  640,  641, 5304
 9670, 5304, 5303,  640
 9671,  641,  642, 5305
 9672, 5305, 5304,  641
 9673,  642,  643, 5306
 9674, 5306, 5305,  642
 9675,  643,  644, 5307
 9676, 5307, 5306,  643
 9677,  644,  645, 5308
 9678, 5308, 5307,  644
 9679,  645,  646, 5309
 9680, 5309, 5308,  645
 9681,  646,  647, 5310
 9682, 5310, 5309,  646
 9683,  647,  648, 5311
 9684, 5311, 5310,  647
 9685,  648,  649, 5312
 9686, 5312, 5311,  648
 9687,  649,  650, 5313
 9688, 5313, 5312,  649
 9689,  650,  651, 5314
 9690, 5314, 5313,  650
 9691,  651,  652, 5315
 9692, 5315, 5314,  651
 9693,  652,  653, 5316
 9694, 5316, 5315,  652
 9695,  653,  654, 5317
 9696, 5317, 5316,  653
 9697,  654,  655, 5318
 9698, 5318, 5317,  654
 9699,  655,  656, 5319
 9700, 5319, 5318,  655
 9701,  656,  657, 5320
 9702, 5320, 5319,  656
 9703,  657,  658, 5321
 9704, 5321, 5320,  657
 9705,  658,  659, 5322
 9706, 5322, 5321,  658
 9707,  659,  660, 5323
 9708, 5323, 5322,  659
 9709,  660,  661, 5324
 9710, 5324, 5323,  660
 9711,  661,  662, 5325
 9712, 5325, 5324,  661
 9713,  662,  663, 5326
 9714, 5326, 5325,  662
 9715,  663,  664, 5327
 9716, 5327, 5326,  663
 9717,  664,  665, 5328
 9718, 5328, 5327,  664
 9719,  665,  666, 5329
 9720, 5329, 5328,  665
 9721,  666,  667, 5330
 9722, 5330, 5329,  666
 9723,  667,  668, 5331
 9724, 5331, 5330,  667
 9725,  668,  669, 5332
 9726, 5332, 5331,  668
 9727,  669,  670, 5333
 9728, 5333, 5332,  669
 9729,  670,  671, 5334
 9730, 5334, 5333,  670
 9731,  671,  672, 5335
 9732, 5335, 5334,  671
 9733,  672,  673, 5336
 9734, 5336, 5335,  672
 9735,  673,  674, 5337
 9736, 5337, 5336,  673
 9737,  674,  675, 5338
 9738, 5338, 5337,  674
 9739,  675,  676, 5339
 9740, 5339, 5338,  675
 9741,  676,  677, 5340
 9742, 5340, 5339,  676
 9743,  677,  678, 5341
 9744, 5341, 5340,  677
 9745,  678,  679, 5342
 9746, 5342, 5341,  678
 9747,  679,  680, 5343
 9748, 5343, 5342,  679
 9749,  680,  681, 5344
 9750, 5344, 5343,  680
 9751,  681,  682, 5345
 9752, 5345, 5344,  681
 9753,  682,  683, 5346
 9754, 5346, 5345,  682
 9755,  683,  684, 5347
 9756, 5347, 5346,  683
 9757,  684,  685, 5348
 9758, 5348, 5347,  684
 9759,  685,   14,  686
 9760,  686, 5348,  685
 9761,  715, 5270, 5349
 9762, 5349,  714,  715
 9763, 5270, 5271, 5350
 9764, 5350, 5349, 5270
 9765, 5271, 5272, 5351
 9766, 5351, 5350, 5271
 9767, 5272, 5273, 5352
 9768, 5352, 5351, 5272
 9769, 5273, 5274, 5353
 9770, 5353, 5352, 5273
 9771, 5274, 5275, 5354
 9772, 5354, 5353, 5274
 9773, 5275, 5276, 5355
 9774, 5355, 5354, 5275
 9775, 5276, 5277, 5356
 9776, 5356, 5355, 5276
 9777, 5277, 5278, 5357
 9778, 5357, 5356, 5277
 9779, 5278, 5279, 5358
 9780, 5358, 5357, 5278
 9781, 5279, 5280, 5359
 9782, 5359, 5358, 5279
 9783, 5280, 5281, 5360
 9784, 5360, 5359, 5280
 9785, 5281, 5282, 5361
 9786, 5361, 5360, 5281
 9787, 5282, 5283, 5362
 9788, 5362, 5361, 5282
 9789, 5283, 5284, 5363
 9790, 5363, 5362, 5283
 9791, 5284, 5285, 5364
 9792, 5364, 5363, 5284
 9793, 5285, 5286, 5365
 9794, 5365, 5364, 5285
 9795, 5286, 5287, 5366
 9796, 5366, 5365, 5286
 9797, 5287, 5288, 5367
 9798, 5367, 5366, 5287
 9799, 5288, 5289, 5368
 9800, 5368, 5367, 5288
 9801, 5289, 5290, 5369
 9802, 5369, 5368, 5289
 9803, 5290, 5291, 5370
 9804, 5370, 5369, 5290
 9805, 5291, 5292, 5371
 9806, 5371, 5370, 5291
 9807, 5292, 5293, 5372
 9808, 5372, 5371, 5292
 9809, 5293, 5294, 5373
 9810, 5373, 5372, 5293
 9811, 5294, 5295, 5374
 9812, 5374, 5373, 5294
 9813, 5295, 5296, 5375
 9814, 5375, 5374, 5295
 9815, 5296, 5297, 5376
 9816, 5376, 5375, 5296
 9817, 5297, 5298, 5377
 9818, 5377, 5376, 5297
 9819, 5298, 5299, 5378
 9820, 5378, 5377, 5298
 9821, 5299, 5300, 5379
 9822, 5379, 5378, 5299
 9823, 5300, 5301, 5380
 9824, 5380, 5379, 5300
 9825, 5301, 5302, 5381
 9826, 5381, 5380, 5301
 9827, 5302, 5303, 5382
 9828, 5382, 5381, 5302
 9829, 5303, 5304, 5383
 9830, 5383, 5382, 5303
 9831, 5304, 5305, 5384
 9832, 5384, 5383, 5304
 9833, 5305, 5306, 5385
 9834, 5385, 5384, 5305
 9835, 5306, 5307, 5386
 9836, 5386, 5385, 5306
 9837, 5307, 5308, 5387
 9838, 5387, 5386, 5307
 9839, 5308, 5309, 5388
 9840, 5388, 5387, 5308
 9841, 5309, 5310, 5389
 9842, 5389, 5388, 5309
 9843, 5310, 5311, 5390
 9844, 5390, 5389, 5310
 9845, 5311, 5312, 5391
 9846, 5391, 5390, 5311
 9847, 5312, 5313, 5392
 9848, 5392, 5391, 5312
 9849, 5313, 5314, 5393
 9850, 5393, 5392, 5313
 9851, 5314, 5315, 5394
 9852, 5394, 5393, 5314
 9853, 5315, 5316, 5395
 9854, 5395, 5394, 5315
 9855, 5316, 5317, 5396
 9856, 5396, 5395, 5316
 9857, 5317, 5318, 5397
 9858, 5397, 5396, 5317
 9859, 5318, 5319, 5398
 9860, 5398, 5397, 5318
 9861, 5319, 5320, 5399
 9862, 5399, 5398, 5319
 9863, 5320, 5321, 5400
 9864, 5400, 5399, 5320
 9865, 5321, 5322, 5401
 9866, 5401, 5400, 5321
 9867, 5322, 5323, 5402
 9868, 5402, 5401, 5322
 9869, 5323, 5324, 5403
 9870, 5403, 5402, 5323
 9871, 5324, 5325, 5404
 9872, 5404, 5403, 5324
 9873, 5325, 5326, 5405
 9874, 5405, 5404, 5325
 9875, 5326, 5327, 5406
 9876, 5406, 5405, 5326
 9877, 5327, 5328, 5407
 9878, 5407, 5406, 5327
 9879, 5328, 5329, 5408
 9880, 5408, 5407, 5328
 9881, 5329, 5330, 5409
 9882, 5409, 5408, 5329
 9883, 5330, 5331, 5410
 9884, 5410, 5409, 5330
 9885, 5331, 5332, 5411
 9886, 5411, 5410, 5331
 9887, 5332, 5333, 5412
 9888, 5412, 5411, 5332
 9889, 5333, 5334, 5413
 9890, 5413, 5412, 5333
 9891, 5334, 5335, 5414
 9892, 5414, 5413, 5334
 9893, 5335, 5336, 5415
 9894, 5415, 5414, 5335
 9895, 5336, 5337, 5416
 9896, 5416, 5415, 5336
 9897, 5337, 5338, 5417
 9898, 5417, 5416, 5337
 9899, 5338, 5339, 5418
 9900, 5418, 5417, 5338
 9901, 5339, 5340, 5419
 9902, 5419, 5418, 5339
 9903, 5340, 5341, 5420
 9904, 5420, 5419, 5340
 9905, 5341, 5342, 5421
 9906, 5421, 5420, 5341
 9907, 5342, 5343, 5422
 9908, 5422, 5421, 5342
 9909, 5343, 5344, 5423
 9910, 5423, 5422, 5343
 9911, 5344, 5345, 5424
 9912, 5424, 5423, 5344
 9913, 5345, 5346, 5425
 9914, 5425, 5424, 5345
 9915, 5346, 5347, 5426
 9916, 5426, 5425, 5346
 9917, 5347, 5348, 5427
 9918, 5427, 5426, 5347
 9919, 5348,  686,  687
 9920,  687, 5427, 5348
 9921,  714, 5349, 5428
 9922, 5428,  713,  714
 9923, 5349, 5350, 5429
 9924, 5429, 5428, 5349
 9925, 5350, 5351, 5430
 9926, 5430, 5429, 5350
 9927, 5351, 5352, 5431
 9928, 5431, 5430, 5351
 9929, 5352, 5353, 5432
 9930, 5432, 5431, 5352
 9931, 5353, 5354, 5433
 9932, 5433, 5432, 5353
 9933, 5354, 5355, 5434
 9934, 5434, 5433, 5354
 9935, 5355, 5356, 5435
 9936, 5435, 5434, 5355
 9937, 5356, 5357, 5436
 9938, 5436, 5435, 5356
 9939, 5357, 5358, 5437
 9940, 5437, 5436, 5357
 9941, 5358, 5359, 5438
 9942, 5438, 5437, 5358
 9943, 5359, 5360, 5439
 9944, 5439, 5438, 5359
 9945, 5360, 5361, 5440
 9946, 5440, 5439, 5360
 9947, 5361, 5362, 5441
 9948, 5441, 5440, 5361
 9949, 5362, 5363, 5442
 9950, 5442, 5441, 5362
 9951, 5363, 5364, 5443
 9952, 5443, 5442, 5363
 9953, 5364, 5365, 5444
 9954, 5444, 5443, 5364
 9955, 5365, 5366, 5445
 9956, 5445, 5444, 5365
 9957, 5366, 5367, 5446
 9958, 5446, 5445, 5366
 9959, 5367, 5368, 5447
 9960, 5447, 5446, 5367
 9961, 5368, 5369, 5448
 9962, 5448, 5447, 5368
 9963, 5369, 5370, 5449
 9964, 5449, 5448, 5369
 9965, 5370, 5371, 5450
 9966, 5450, 5449, 5370
 9967, 5371, 5372, 5451
 9968, 5451, 5450, 5371
 9969, 5372, 5373, 5452
 9970, 5452, 5451, 5372
 9971, 5373, 5374, 5453
 9972, 5453, 5452, 5373
 9973, 5374, 5375, 5454
 9974, 5454, 5453, 5374
 9975, 5375, 5376, 5455
 9976, 5455, 5454, 5375
 9977, 5376, 5377, 5456
 9978, 5456, 5455, 5376
 9979, 5377, 5378, 5457
 9980, 5457, 5456, 5377
 9981, 5378, 5379, 5458
 9982, 5458, 5457, 5378
 9983, 5379, 5380, 5459
 9984, 5459, 5458, 5379
 9985, 5380, 5381, 5460
 9986, 5460, 5459, 5380
 9987, 5381, 5382, 5461
 9988, 5461, 5460, 5381
 9989, 5382, 5383, 5462
 9990, 5462, 5461, 5382
 9991, 5383, 5384, 5463
 9992, 5463, 5462, 5383
 9993, 5384, 5385, 5464
 9994, 5464, 5463, 5384
 9995, 5385, 5386, 5465
 9996, 5465, 5464, 5385
 9997, 5386, 5387, 5466
 9998, 5466, 5465, 5386
 9999, 5387, 5388, 5467
10000, 5467, 5466, 5387
10001, 5388, 5389, 5468
10002, 5468, 5467, 5388
10003, 5389, 5390, 5469
10004, 5469, 5468, 5389
10005, 5390, 5391, 5470
10006, 5470, 5469, 5390
10007, 5391, 5392, 5471
10008, 5471, 5470, 5391
10009, 5392, 5393, 5472
10010, 5472, 5471, 5392
10011, 5393, 5394, 5473
10012, 5473, 5472, 5393
10013, 5394, 5395, 5474
10014, 5474, 5473, 5394
10015, 5395, 5396, 5475
10016, 5475, 5474, 5395
10017, 5396, 5397, 5476
10018, 5476, 5475, 5396
10019, 5397, 5398, 5477
10020, 5477, 5476, 5397
10021, 5398, 5399, 5478
10022, 5478, 5477, 5398
10023, 5399, 5400, 5479
10024, 5479, 5478, 5399
10025, 5400, 5401, 5480
10026, 5480, 5479, 5400
10027, 5401, 5402, 5481
10028, 5481, 5480, 5401
10029, 5402, 5403, 5482
10030, 5482, 5481, 5402
10031, 5403, 5404, 5483
10032, 5483, 5482, 5403
10033, 5404, 5405, 5484
10034, 5484, 5483, 5404
10035, 5405, 5406, 5485
10036, 5485, 5484, 5405
10037, 5406, 5407, 5486
10038, 5486, 5485, 5406
10039, 5407, 5408, 5487
10040, 5487, 5486, 5407
10041, 5408, 5409, 5488
10042, 5488, 5487, 5408
10043, 5409, 5410, 5489
10044, 5489, 5488, 5409
10045, 5410, 5411, 5490
10046, 5490, 5489, 5410
10047, 5411, 5412, 5491
10048, 5491, 5490, 5411
10049, 5412, 5413, 5492
10050, 5492, 5491, 5412
10051, 5413, 5414, 5493
10052, 5493, 5492, 5413
10053, 5414, 5415, 5494
10054, 5494, 5493, 5414
10055, 5415, 5416, 5495
10056, 5495, 5494, 5415
10057, 5416, 5417, 5496
10058, 5496, 5495, 5416
10059, 5417, 5418, 5497
10060, 5497, 5496, 5417
10061, 5418, 5419, 5498
10062, 5498, 5497, 5418
10063, 5419, 5420, 5499
10064, 5499, 5498, 5419
10065, 5420, 5421, 5500
10066, 5500, 5499, 5420
10067, 5421, 5422, 5501
10068, 5501, 5500, 5421
10069, 5422, 5423, 5502
10070, 5502, 5501, 5422
10071, 5423, 5424, 5503
10072, 5503, 5502, 5423
10073, 5424, 5425, 5504
10074, 5504, 5503, 5424
10075, 5425, 5426, 5505
10076, 5505, 5504, 5425
10077, 5426, 5427, 5506
10078, 5506, 5505, 5426
10079, 5427,  687,  688
10080,  688, 5506, 5427
10081,  713, 5428, 5507
10082, 5507,  712,  713
10083, 5428, 5429, 5508
10084, 5508, 5507, 5428
10085, 5429, 5430, 5509
10086, 5509, 5508, 5429
10087, 5430, 5431, 5510
10088, 5510, 5509, 5430
10089, 5431, 5432, 5511
10090, 5511, 5510, 5431
10091, 5432, 5433, 5512
10092, 5512, 5511, 5432
10093, 5433, 5434, 5513
10094, 5513, 5512, 5433
10095, 5434, 5435, 5514
10096, 5514, 5513, 5434
10097, 5435, 5436, 5515
10098, 5515, 5514, 5435
10099, 5436, 5437, 5516
10100, 5516, 5515, 5436
10101, 5437, 5438, 5517
10102, 5517, 5516, 5437
10103, 5438, 5439, 5518
10104, 5518, 5517, 5438
10105, 5439, 5440, 5519
10106, 5519, 5518, 5439
10107, 5440, 5441, 5520
10108, 5520, 5519, 5440
10109, 5441, 5442, 5521
10110, 5521, 5520, 5441
10111, 5442, 5443, 5522
10112, 5522, 5521, 5442
10113, 5443, 5444, 5523
10114, 5523, 5522, 5443
10115, 5444, 5445, 5524
10116, 5524, 5523, 5444
10117, 5445, 5446, 5525
10118, 5525, 5524, 5445
10119, 5446, 5447, 5526
10120, 5526, 5525, 5446
10121, 5447, 5448, 5527
10122, 5527, 5526, 5447
10123, 5448, 5449, 5528
10124, 5528, 5527, 5448
10125, 5449, 5450, 5529
10126, 5529, 5528, 5449
10127, 5450, 5451, 5530
10128, 5530, 5529, 5450
10129, 5451, 5452, 5531
10130, 5531, 5530, 5451
10131, 5452, 5453, 5532
10132, 5532, 5531, 5452
10133, 5453, 5454, 5533
10134, 5533, 5532, 5453
10135, 5454, 5455, 5534
10136, 5534, 5533, 5454
10137, 5455, 5456, 5535
10138, 5535, 5534, 5455
10139, 5456, 5457, 5536
10140, 5536, 5535, 5456
10141, 5457, 5458, 5537
10142, 5537, 5536, 5457
10143, 5458, 5459, 5538
10144, 5538, 5537, 5458
10145, 5459, 5460, 5539
10146, 5539, 5538, 5459
10147, 5460, 5461, 5540
10148, 5540, 5539, 5460
10149, 5461, 5462, 5541
10150, 5541, 5540, 5461
10151, 5462, 5463, 5542
10152, 5542, 5541, 5462
10153, 5463, 5464, 5543
10154, 5543, 5542, 5463
10155, 5464, 5465, 5544
10156, 5544, 5543, 5464
10157, 5465, 5466, 5545
10158, 5545, 5544, 5465
10159, 5466, 5467, 5546
10160, 5546, 5545, 5466
10161, 5467, 5468, 5547
10162, 5547, 5546, 5467
10163, 5468, 5469, 5548
10164, 5548, 5547, 5468
10165, 5469, 5470, 5549
10166, 5549, 5548, 5469
10167, 5470, 5471, 5550
10168, 5550, 5549, 5470
10169, 5471, 5472, 5551
10170, 5551, 5550, 5471
10171, 5472, 5473, 5552
10172, 5552, 5551, 5472
10173, 5473, 5474, 5553
10174, 5553, 5552, 5473
10175, 5474, 5475, 5554
10176, 5554, 5553, 5474
10177, 5475, 5476, 5555
10178, 5555, 5554, 5475
10179, 5476, 5477, 5556
10180, 5556, 5555, 5476
10181, 5477, 5478, 5557
10182, 5557, 5556, 5477
10183, 5478, 5479, 5558
10184, 5558, 5557, 5478
10185, 5479, 5480, 5559
10186, 5559, 5558, 5479
10187, 5480, 5481, 5560
10188, 5560, 5559, 5480
10189, 5481, 5482, 5561
10190, 5561, 5560, 5481
10191, 5482, 5483, 5562
10192, 5562, 5561, 5482
10193, 5483, 5484, 5563
10194, 5563, 5562, 5483
10195, 5484, 5485, 5564
10196, 5564, 5563, 5484
10197, 5485, 5486, 5565
10198, 5565, 5564, 5485
10199, 5486, 5487, 5566
10200, 5566, 5565, 5486
10201, 5487, 5488, 5567
10202, 5567, 5566, 5487
10203, 5488, 5489, 5568
10204, 5568, 5567, 5488
10205, 5489, 5490, 5569
10206, 5569, 5568, 5489
10207, 5490, 5491, 5570
10208, 5570, 5569, 5490
10209, 5491, 5492, 5571
10210, 5571, 5570, 5491
10211, 5492, 5493, 5572
10212, 5572, 5571, 5492
10213, 5493, 5494, 5573
10214, 5573, 5572, 5493
10215, 5494, 5495, 5574
10216, 5574, 5573, 5494
10217, 5495, 5496, 5575
10218, 5575, 5574, 5495
10219, 5496, 5497, 5576
10220, 5576, 5575, 5496
10221, 5497, 5498, 5577
10222, 5577, 5576, 5497
10223, 5498, 5499, 5578
10224, 5578, 5577, 5498
10225, 5499, 5500, 5579
10226, 5579, 5578, 5499
10227, 5500, 5501, 5580
10228, 5580, 5579, 5500
10229, 5501, 5502, 5581
10230, 5581, 5580, 5501
10231, 5502, 5503, 5582
10232, 5582, 5581, 5502
10233, 5503, 5504, 5583
10234, 5583, 5582, 5503
10235, 5504, 5505, 5584
10236, 5584, 5583, 5504
10237, 5505, 5506, 5585
10238, 5585, 5584, 5505
10239, 5506,  688,  689
10240,  689, 5585, 5506
10241,  712, 5507, 5586
10242, 5586,  711,  712
10243, 5507, 5508, 5587
10244, 5587, 5586, 5507
10245, 5508, 5509, 5588
10246, 5588, 5587, 5508
10247, 5509, 5510, 5589
10248, 5589, 5588, 5509
10249, 5510, 5511, 5590
10250, 5590, 5589, 5510
10251, 5511, 5512, 5591
10252, 5591, 5590, 5511
10253, 5512, 5513, 5592
10254, 5592, 5591, 5512
10255, 5513, 5514, 5593
10256, 5593, 5592, 5513
10257, 5514, 5515, 5594
10258, 5594, 5593, 5514
10259, 5515, 5516, 5595
10260, 5595, 5594, 5515
10261, 5516, 5517, 5596
10262, 5596, 5595, 5516
10263, 5517, 5518, 5597
10264, 5597, 5596, 5517
10265, 5518, 5519, 5598
10266, 5598, 5597, 5518
10267, 5519, 5520, 5599
10268, 5599, 5598, 5519
10269, 5520, 5521, 5600
10270, 5600, 5599, 5520
10271, 5521, 5522, 5601
10272, 5601, 5600, 5521
10273, 5522, 5523, 5602
10274, 5602, 5601, 5522
10275, 5523, 5524, 5603
10276, 5603, 5602, 5523
10277, 5524, 5525, 5604
10278, 5604, 5603, 5524
10279, 5525, 5526, 5605
10280, 5605, 5604, 5525
10281, 5526, 5527, 5606
10282, 5606, 5605, 5526
10283, 5527, 5528, 5607
10284, 5607, 5606, 5527
10285, 5528, 5529, 5608
10286, 5608, 5607, 5528
10287, 5529, 5530, 5609
10288, 5609, 5608, 5529
10289, 5530, 5531, 5610
10290, 5610, 5609, 5530
10291, 5531, 5532, 5611
10292, 5611, 5610, 5531
10293, 5532, 5533, 5612
10294, 5612, 5611, 5532
10295, 5533, 5534, 5613
10296, 5613, 5612, 5533
10297, 5534, 5535, 5614
10298, 5614, 5613, 5534
10299, 5535, 5536, 5615
10300, 5615, 5614, 5535
10301, 5536, 5537, 5616
10302, 5616, 5615, 5536
10303, 5537, 5538, 5617
10304, 5617, 5616, 5537
10305, 5538, 5539, 5618
10306, 5618, 5617, 5538
10307, 5539, 5540, 5619
10308, 5619, 5618, 5539
10309, 5540, 5541, 5620
10310, 5620, 5619, 5540
10311, 5541, 5542, 5621
10312, 5621, 5620, 5541
10313, 5542, 5543, 5622
10314, 5622, 5621, 5542
10315, 5543, 5544, 5623
10316, 5623, 5622, 5543
10317, 5544, 5545, 5624
10318, 5624, 5623, 5544
10319, 5545, 5546, 5625
10320, 5625, 5624, 5545
10321, 5546, 5547, 5626
10322, 5626, 5625, 5546
10323, 5547, 5548, 5627
10324, 5627, 5626, 5547
10325, 5548, 5549, 5628
10326, 5628, 5627, 5548
10327, 5549, 5550, 5629
10328, 5629, 5628, 5549
10329, 5550, 5551, 5630
10330, 5630, 5629, 5550
10331, 5551, 5552, 5631
10332, 5631, 5630, 5551
10333, 5552, 5553, 5632
10334, 5632, 5631, 5552
10335, 5553, 5554, 5633
10336, 5633, 5632, 5553
10337, 5554, 5555, 5634
10338, 5634, 5633, 5554
10339, 5555, 5556, 5635
10340, 5635, 5634, 5555
10341, 5556, 5557, 5636
10342, 5636, 5635, 5556
10343, 5557, 5558, 5637
10344, 5637, 5636, 5557
10345, 5558, 5559, 5638
10346, 5638, 5637, 5558
10347, 5559, 5560, 5639
10348, 5639, 5638, 5559
10349, 5560, 5561, 5640
10350, 5640, 5639, 5560
10351, 5561, 5562, 5641
10352, 5641, 5640, 5561
10353, 5562, 5563, 5642
10354, 5642, 5641, 5562
10355, 5563, 5564, 5643
10356, 5643, 5642, 5563
10357, 5564, 5565, 5644
10358, 5644, 5643, 5564
10359, 5565, 5566, 5645
10360, 5645, 5644, 5565
10361, 5566, 5567, 5646
10362, 5646, 5645, 5566
10363, 5567, 5568, 5647
10364, 5647, 5646, 5567
10365, 5568, 5569, 5648
10366, 5648, 5647, 5568
10367, 5569, 5570, 5649
10368, 5649, 5648, 5569
10369, 5570, 5571, 5650
10370, 5650, 5649, 5570
10371, 5571, 5572, 5651
10372, 5651, 5650, 5571
10373, 5572, 5573, 5652
10374, 5652, 5651, 5572
10375, 5573, 5574, 5653
10376, 5653, 5652, 5573
10377, 5574, 5575, 5654
10378, 5654, 5653, 5574
10379, 5575, 5576, 5655
10380, 5655, 5654, 5575
10381, 5576, 5577, 5656
10382, 5656, 5655, 5576
10383, 5577, 5578, 5657
10384, 5657, 5656, 5577
10385, 5578, 5579, 5658
10386, 5658, 5657, 5578
10387, 5579, 5580, 5659
10388, 5659, 5658, 5579
10389, 5580, 5581, 5660
10390, 5660, 5659, 5580
10391, 5581, 5582, 5661
10392, 5661, 5660, 5581
10393, 5582, 5583, 5662
10394, 5662, 5661, 5582
10395, 5583, 5584, 5663
10396, 5663, 5662, 5583
10397, 5584, 5585, 5664
10398, 5664, 5663, 5584
10399, 5585,  689,  690
10400,  690, 5664, 5585
10401,  711, 5586, 5665
10402, 5665,  710,  711
10403, 5586, 5587, 5666
10404, 5666, 5665, 5586
10405, 5587, 5588, 5667
10406, 5667, 5666, 5587
10407, 5588, 5589, 5668
10408, 5668, 5667, 5588
10409, 5589, 5590, 5669
10410, 5669, 5668, 5589
10411, 5590, 5591, 5670
10412, 5670, 5669, 5590
10413, 5591, 5592, 5671
10414, 5671, 5670, 5591
10415, 5592, 5593, 5672
10416, 5672, 5671, 5592
10417, 5593, 5594, 5673
10418, 5673, 5672, 5593
10419, 5594, 5595, 5674
10420, 5674, 5673, 5594
10421, 5595, 5596, 5675
10422, 5675, 5674, 5595
10423, 5596, 5597, 5676
10424, 5676, 5675, 5596
10425, 5597, 5598, 5677
10426, 5677, 5676, 5597
10427, 5598, 5599, 5678
10428, 5678, 5677, 5598
10429, 5599, 5600, 5679
10430, 5679, 5678, 5599
10431, 5600, 5601, 5680
10432, 5680, 5679, 5600
10433, 5601, 5602, 5681
10434, 5681, 5680, 5601
10435, 5602, 5603, 5682
10436, 5682, 5681, 5602
10437, 5603, 5604, 5683
10438, 5683, 5682, 5603
10439, 5604, 5605, 5684
10440, 5684, 5683, 5604
10441, 5605, 5606, 5685
10442, 5685, 5684, 5605
10443, 5606, 5607, 5686
10444, 5686, 5685, 5606
10445, 5607, 5608, 5687
10446, 5687, 5686, 5607
10447, 5608, 5609, 5688
10448, 5688, 5687, 5608
10449, 5609, 5610, 5689
10450, 5689, 5688, 5609
10451, 5610, 5611, 5690
10452, 5690, 5689, 5610
10453, 5611, 5612, 5691
10454, 5691, 5690, 5611
10455, 5612, 5613, 5692
10456, 5692, 5691, 5612
10457, 5613, 5614, 5693
10458, 5693, 5692, 5613
10459, 5614, 5615, 5694
10460, 5694, 5693, 5614
10461, 5615, 5616, 5695
10462, 5695, 5694, 5615
10463, 5616, 5617, 5696
10464, 5696, 5695, 5616
10465, 5617, 5618, 5697
10466, 5697, 5696, 5617
10467, 5618, 5619, 5698
10468, 5698, 5697, 5618
10469, 5619, 5620, 5699
10470, 5699, 5698, 5619
10471, 5620, 5621, 5700
10472, 5700, 5699, 5620
10473, 5621, 5622, 5701
10474, 5701, 5700, 5621
10475, 5622, 5623, 5702
10476, 5702, 5701, 5622
10477, 5623, 5624, 5703
10478, 5703, 5702, 5623
10479, 5624, 5625, 5704
10480, 5704, 5703, 5624
10481, 5625, 5626, 5705
10482, 5705, 5704, 5625
10483, 5626, 5627, 5706
10484, 5706, 5705, 5626
10485, 5627, 5628, 5707
10486, 5707, 5706, 5627
10487, 5628, 5629, 5708
10488, 5708, 5707, 5628
10489, 5629, 5630, 5709
10490, 5709, 5708, 5629
10491, 5630, 5631, 5710
10492, 5710, 5709, 5630
10493, 5631, 5632, 5711
10494, 5711, 5710, 5631
10495, 5632, 5633, 5712
10496, 5712, 5711, 5632
10497, 5633, 5634, 5713
10498, 5713, 5712, 5633
10499, 5634, 5635, 5714
10500, 5714, 5713, 5634
10501, 5635, 5636, 5715
10502, 5715, 5714, 5635
10503, 5636, 5637, 5716
10504, 5716, 5715, 5636
10505, 5637, 5638, 5717
10506, 5717, 5716, 5637
10507, 5638, 5639, 5718
10508, 5718, 5717, 5638
10509, 5639, 5640, 5719
10510, 5719, 5718, 5639
10511, 5640, 5641, 5720
10512, 5720, 5719, 5640
10513, 5641, 5642, 5721
10514, 5721, 5720, 5641
10515, 5642, 5643, 5722
10516, 5722, 5721, 5642
10517, 5643, 5644, 5723
10518, 5723, 5722, 5643
10519, 5644, 5645, 5724
10520, 5724, 5723, 5644
10521, 5645, 5646, 5725
10522, 5725, 5724, 5645
10523, 5646, 5647, 5726
10524, 5726, 5725, 5646
10525, 5647, 5648, 5727
10526, 5727, 5726, 5647
10527, 5648, 5649, 5728
10528, 5728, 5727, 5648
10529, 5649, 5650, 5729
10530, 5729, 5728, 5649
10531, 5650, 5651, 5730
10532, 5730, 5729, 5650
10533, 5651, 5652, 5731
10534, 5731, 5730, 5651
10535, 5652, 5653, 5732
10536, 5732, 5731, 5652
10537, 5653, 5654, 5733
10538, 5733, 5732, 5653
10539, 5654, 5655, 5734
10540, 5734, 5733, 5654
10541, 5655, 5656, 5735
10542, 5735, 5734, 5655
10543, 5656, 5657, 5736
10544, 5736, 5735, 5656
10545, 5657, 5658, 5737
10546, 5737, 5736, 5657
10547, 5658, 5659, 5738
10548, 5738, 5737, 5658
10549, 5659, 5660, 5739
10550, 5739, 5738, 5659
10551, 5660, 5661, 5740
10552, 5740, 5739, 5660
10553, 5661, 5662, 5741
10554, 5741, 5740, 5661
10555, 5662, 5663, 5742
10556, 5742, 5741, 5662
10557, 5663, 5664, 5743
10558, 5743, 5742, 5663
10559, 5664,  690,  691
10560,  691, 5743, 5664
10561,  710, 5665, 5744
10562, 5744,  709,  710
10563, 5665, 5666, 5745
10564, 5745, 5744, 5665
10565, 5666, 5667, 5746
10566, 5746, 5745, 5666
10567, 5667, 5668, 5747
10568, 5747, 5746, 5667
10569, 5668, 5669, 5748
10570, 5748, 5747, 5668
10571, 5669, 5670, 5749
10572, 5749, 5748, 5669
10573, 5670, 5671, 5750
10574, 5750, 5749, 5670
10575, 5671, 5672, 5751
10576, 5751, 5750, 5671
10577, 5672, 5673, 5752
10578, 5752, 5751, 5672
10579, 5673, 5674, 5753
10580, 5753, 5752, 5673
10581, 5674, 5675, 5754
10582, 5754, 5753, 5674
10583, 5675, 5676, 5755
10584, 5755, 5754, 5675
10585, 5676, 5677, 5756
10586, 5756, 5755, 5676
10587, 5677, 5678, 5757
10588, 5757, 5756, 5677
10589, 5678, 5679, 5758
10590, 5758, 5757, 5678
10591, 5679, 5680, 5759
10592, 5759, 5758, 5679
10593, 5680, 5681, 5760
10594, 5760, 5759, 5680
10595, 5681, 5682, 5761
10596, 5761, 5760, 5681
10597, 5682, 5683, 5762
10598, 5762, 5761, 5682
10599, 5683, 5684, 5763
10600, 5763, 5762, 5683
10601, 5684, 5685, 5764
10602, 5764, 5763, 5684
10603, 5685, 5686, 5765
10604, 5765, 5764, 5685
10605, 5686, 5687, 5766
10606, 5766, 5765, 5686
10607, 5687, 5688, 5767
10608, 5767, 5766, 5687
10609, 5688, 5689, 5768
10610, 5768, 5767, 5688
10611, 5689, 5690, 5769
10612, 5769, 5768, 5689
10613, 5690, 5691, 5770
10614, 5770, 5769, 5690
10615, 5691, 5692, 5771
10616, 5771, 5770, 5691
10617, 5692, 5693, 5772
10618, 5772, 5771, 5692
10619, 5693, 5694, 5773
10620, 5773, 5772, 5693
10621, 5694, 5695, 5774
10622, 5774, 5773, 5694
10623, 5695, 5696, 5775
10624, 5775, 5774, 5695
10625, 5696, 5697, 5776
10626, 5776, 5775, 5696
10627, 5697, 5698, 5777
10628, 5777, 5776, 5697
10629, 5698, 5699, 5778
10630, 5778, 5777, 5698
10631, 5699, 5700, 5779
10632, 5779, 5778, 5699
10633, 5700, 5701, 5780
10634, 5780, 5779, 5700
10635, 5701, 5702, 5781
10636, 5781, 5780, 5701
10637, 5702, 5703, 5782
10638, 5782, 5781, 5702
10639, 5703, 5704, 5783
10640, 5783, 5782, 5703
10641, 5704, 5705, 5784
10642, 5784, 5783, 5704
10643, 5705, 5706, 5785
10644, 5785, 5784, 5705
10645, 5706, 5707, 5786
10646, 5786, 5785, 5706
10647, 5707, 5708, 5787
10648, 5787, 5786, 5707
10649, 5708, 5709, 5788
10650, 5788, 5787, 5708
10651, 5709, 5710, 5789
10652, 5789, 5788, 5709
10653, 5710, 5711, 5790
10654, 5790, 5789, 5710
10655, 5711, 5712, 5791
10656, 5791, 5790, 5711
10657, 5712, 5713, 5792
10658, 5792, 5791, 5712
10659, 5713, 5714, 5793
10660, 5793, 5792, 5713
10661, 5714, 5715, 5794
10662, 5794, 5793, 5714
10663, 5715, 5716, 5795
10664, 5795, 5794, 5715
10665, 5716, 5717, 5796
10666, 5796, 5795, 5716
10667, 5717, 5718, 5797
10668, 5797, 5796, 5717
10669, 5718, 5719, 5798
10670, 5798, 5797, 5718
10671, 5719, 5720, 5799
10672, 5799, 5798, 5719
10673, 5720, 5721, 5800
10674, 5800, 5799, 5720
10675, 5721, 5722, 5801
10676, 5801, 5800, 5721
10677, 5722, 5723, 5802
10678, 5802, 5801, 5722
10679, 5723, 5724, 5803
10680, 5803, 5802, 5723
10681, 5724, 5725, 5804
10682, 5804, 5803, 5724
10683, 5725, 5726, 5805
10684, 5805, 5804, 5725
10685, 5726, 5727, 5806
10686, 5806, 5805, 5726
10687, 5727, 5728, 5807
10688, 5807, 5806, 5727
10689, 5728, 5729, 5808
10690, 5808, 5807, 5728
10691, 5729, 5730, 5809
10692, 5809, 5808, 5729
10693, 5730, 5731, 5810
10694, 5810, 5809, 5730
10695, 5731, 5732, 5811
10696, 5811, 5810, 5731
10697, 5732, 5733, 5812
10698, 5812, 5811, 5732
10699, 5733, 5734, 5813
10700, 5813, 5812, 5733
10701, 5734, 5735, 5814
10702, 5814, 5813, 5734
10703, 5735, 5736, 5815
10704, 5815, 5814, 5735
10705, 5736, 5737, 5816
10706, 5816, 5815, 5736
10707, 5737, 5738, 5817
10708, 5817, 5816, 5737
10709, 5738, 5739, 5818
10710, 5818, 5817, 5738
10711, 5739, 5740, 5819
10712, 5819, 5818, 5739
10713, 5740, 5741, 5820
10714, 5820, 5819, 5740
10715, 5741, 5742, 5821
10716, 5821, 5820, 5741
10717, 5742, 5743, 5822
10718, 5822, 5821, 5742
10719, 5743,  691,  692
10720,  692, 5822, 5743
10721,  709, 5744, 5823
10722, 5823,  708,  709
10723, 5744, 5745, 5824
10724, 5824, 5823, 5744
10725, 5745, 5746, 5825
10726, 5825, 5824, 5745
10727, 5746, 5747, 5826
10728, 5826, 5825, 5746
10729, 5747, 5748, 5827
10730, 5827, 5826, 5747
10731, 5748, 5749, 5828
10732, 5828, 5827, 5748
10733, 5749, 5750, 5829
10734, 5829, 5828, 5749
10735, 5750, 5751, 5830
10736, 5830, 5829, 5750
10737, 5751, 5752, 5831
10738, 5831, 5830, 5751
10739, 5752, 5753, 5832
10740, 5832, 5831, 5752
10741, 5753, 5754, 5833
10742, 5833, 5832, 5753
10743, 5754, 5755, 5834
10744, 5834, 5833, 5754
10745, 5755, 5756, 5835
10746, 5835, 5834, 5755
10747, 5756, 5757, 5836
10748, 5836, 5835, 5756
10749, 5757, 5758, 5837
10750, 5837, 5836, 5757
10751, 5758, 5759, 5838
10752, 5838, 5837, 5758
10753, 5759, 5760, 5839
10754, 5839, 5838, 5759
10755, 5760, 5761, 5840
10756, 5840, 5839, 5760
10757, 5761, 5762, 5841
10758, 5841, 5840, 5761
10759, 5762, 5763, 5842
10760, 5842, 5841, 5762
10761, 5763, 5764, 5843
10762, 5843, 5842, 5763
10763, 5764, 5765, 5844
10764, 5844, 5843, 5764
10765, 5765, 5766, 5845
10766, 5845, 5844, 5765
10767, 5766, 5767, 5846
10768, 5846, 5845, 5766
10769, 5767, 5768, 5847
10770, 5847, 5846, 5767
10771, 5768, 5769, 5848
10772, 5848, 5847, 5768
10773, 5769, 5770, 5849
10774, 5849, 5848, 5769
10775, 5770, 5771, 5850
10776, 5850, 5849, 5770
10777, 5771, 5772, 5851
10778, 5851, 5850, 5771
10779, 5772, 5773, 5852
10780, 5852, 5851, 5772
10781, 5773, 5774, 5853
10782, 5853, 5852, 5773
10783, 5774, 5775, 5854
10784, 5854, 5853, 5774
10785, 5775, 5776, 5855
10786, 5855, 5854, 5775
10787, 5776, 5777, 5856
10788, 5856, 5855, 5776
10789, 5777, 5778, 5857
10790, 5857, 5856, 5777
10791, 5778, 5779, 5858
10792, 5858, 5857, 5778
10793, 5779, 5780, 5859
10794, 5859, 5858, 5779
10795, 5780, 5781, 5860
10796, 5860, 5859, 5780
10797, 5781, 5782, 5861
10798, 5861, 5860, 5781
10799, 5782, 5783, 5862
10800, 5862, 5861, 5782
10801, 5783, 5784, 5863
10802, 5863, 5862, 5783
10803, 5784, 5785, 5864
10804, 5864, 5863, 5784
10805, 5785, 5786, 5865
10806, 5865, 5864, 5785
10807, 5786, 5787, 5866
10808, 5866, 5865, 5786
10809, 5787, 5788, 5867
10810, 5867, 5866, 5787
10811, 5788, 5789, 5868
10812, 5868, 5867, 5788
10813, 5789, 5790, 5869
10814, 5869, 5868, 5789
10815, 5790, 5791, 5870
10816, 5870, 5869, 5790
10817, 5791, 5792, 5871
10818, 5871, 5870, 5791
10819, 5792, 5793, 5872
10820, 5872, 5871, 5792
10821, 5793, 5794, 5873
10822, 5873, 5872, 5793
10823, 5794, 5795, 5874
10824, 5874, 5873, 5794
10825, 5795, 5796, 5875
10826, 5875, 5874, 5795
10827, 5796, 5797, 5876
10828, 5876, 5875, 5796
10829, 5797, 5798, 5877
10830, 5877, 5876, 5797
10831, 5798, 5799, 5878
10832, 5878, 5877, 5798
10833, 5799, 5800, 5879
10834, 5879, 5878, 5799
10835, 5800, 5801, 5880
10836, 5880, 5879, 5800
10837, 5801, 5802, 5881
10838, 5881, 5880, 5801
10839, 5802, 5803, 5882
10840, 5882, 5881, 5802
10841, 5803, 5804, 5883
10842, 5883, 5882, 5803
10843, 5804, 5805, 5884
10844, 5884, 5883, 5804
10845, 5805, 5806, 5885
10846, 5885, 5884, 5805
10847, 5806, 5807, 5886
10848, 5886, 5885, 5806
10849, 5807, 5808, 5887
10850, 5887, 5886, 5807
10851, 5808, 5809, 5888
10852, 5888, 5887, 5808
10853, 5809, 5810, 5889
10854, 5889, 5888, 5809
10855, 5810, 5811, 5890
10856, 5890, 5889, 5810
10857, 5811, 5812, 5891
10858, 5891, 5890, 5811
10859, 5812, 5813, 5892
10860, 5892, 5891, 5812
10861, 5813, 5814, 5893
10862, 5893, 5892, 5813
10863, 5814, 5815, 5894
10864, 5894, 5893, 5814
10865, 5815, 5816, 5895
10866, 5895, 5894, 5815
10867, 5816, 5817, 5896
10868, 5896, 5895, 5816
10869, 5817, 5818, 5897
10870, 5897, 5896, 5817
10871, 5818, 5819, 5898
10872, 5898, 5897, 5818
10873, 5819, 5820, 5899
10874, 5899, 5898, 5819
10875, 5820, 5821, 5900
10876, 5900, 5899, 5820
10877, 5821, 5822, 5901
10878, 5901, 5900, 5821
10879, 5822,  692,  693
10880,  693, 5901, 5822
10881,  708, 5823, 5902
10882, 5902,  707,  708
10883, 5823, 5824, 5903
10884, 5903, 5902, 5823
10885, 5824, 5825, 5904
10886, 5904, 5903, 5824
10887, 5825, 5826, 5905
10888, 5905, 5904, 5825
10889, 5826, 5827, 5906
10890, 5906, 5905, 5826
10891, 5827, 5828, 5907
10892, 5907, 5906, 5827
10893, 5828, 5829, 5908
10894, 5908, 5907, 5828
10895, 5829, 5830, 5909
10896, 5909, 5908, 5829
10897, 5830, 5831, 5910
10898, 5910, 5909, 5830
10899, 5831, 5832, 5911
10900, 5911, 5910, 5831
10901, 5832, 5833, 5912
10902, 5912, 5911, 5832
10903, 5833, 5834, 5913
10904, 5913, 5912, 5833
10905, 5834, 5835, 5914
10906, 5914, 5913, 5834
10907, 5835, 5836, 5915
10908, 5915, 5914, 5835
10909, 5836, 5837, 5916
10910, 5916, 5915, 5836
10911, 5837, 5838, 5917
10912, 5917, 5916, 5837
10913, 5838, 5839, 5918
10914, 5918, 5917, 5838
10915, 5839, 5840, 5919
10916, 5919, 5918, 5839
10917, 5840, 5841, 5920
10918, 5920, 5919, 5840
10919, 5841, 5842, 5921
10920, 5921, 5920, 5841
10921, 5842, 5843, 5922
10922, 5922, 5921, 5842
10923, 5843, 5844, 5923
10924, 5923, 5922, 5843
10925, 5844, 5845, 5924
10926, 5924, 5923, 5844
10927, 5845, 5846, 5925
10928, 5925, 5924, 5845
10929, 5846, 5847, 5926
10930, 5926, 5925, 5846
10931, 5847, 5848, 5927
10932, 5927, 5926, 5847
10933, 5848, 5849, 5928
10934, 5928, 5927, 5848
10935, 5849, 5850, 5929
10936, 5929, 5928, 5849
10937, 5850, 5851, 5930
10938, 5930, 5929, 5850
10939, 5851, 5852, 5931
10940, 5931, 5930, 5851
10941, 5852, 5853, 5932
10942, 5932, 5931, 5852
10943, 5853, 5854, 5933
10944, 5933, 5932, 5853
10945, 5854, 5855, 5934
10946, 5934, 5933, 5854
10947, 5855, 5856, 5935
10948, 5935, 5934, 5855
10949, 5856, 5857, 5936
10950, 5936, 5935, 5856
10951, 5857, 5858, 5937
10952, 5937, 5936, 5857
10953, 5858, 5859, 5938
10954, 5938, 5937, 5858
10955, 5859, 5860, 5939
10956, 5939, 5938, 5859
10957, 5860, 5861, 5940
10958, 5940, 5939, 5860
10959, 5861, 5862, 5941
10960, 5941, 5940, 5861
10961, 5862, 5863, 5942
10962, 5942, 5941, 5862
10963, 5863, 5864, 5943
10964, 5943, 5942, 5863
10965, 5864, 5865, 5944
10966, 5944, 5943, 5864
10967, 5865, 5866, 5945
10968, 5945, 5944, 5865
10969, 5866, 5867, 5946
10970, 5946, 5945, 5866
10971, 5867, 5868, 5947
10972, 5947, 5946, 5867
10973, 5868, 5869, 5948
10974, 5948, 5947, 5868
10975, 5869, 5870, 5949
10976, 5949, 5948, 5869
10977, 5870, 5871, 5950
10978, 5950, 5949, 5870
10979, 5871, 5872, 5951
10980, 5951, 5950, 5871
10981, 5872, 5873, 5952
10982, 5952, 5951, 5872
10983, 5873, 5874, 5953
10984, 5953, 5952, 5873
10985, 5874, 5875, 5954
10986, 5954, 5953, 5874
10987, 5875, 5876, 5955
10988, 5955, 5954, 5875
10989, 5876, 5877, 5956
10990, 5956, 5955, 5876
10991, 5877, 5878, 5957
10992, 5957, 5956, 5877
10993, 5878, 5879, 5958
10994, 5958, 5957, 5878
10995, 5879, 5880, 5959
10996, 5959, 5958, 5879
10997, 5880, 5881, 5960
10998, 5960, 5959, 5880
10999, 5881, 5882, 5961
11000, 5961, 5960, 5881
11001, 5882, 5883, 5962
11002, 5962, 5961, 5882
11003, 5883, 5884, 5963
11004, 5963, 5962, 5883
11005, 5884, 5885, 5964
11006, 5964, 5963, 5884
11007, 5885, 5886, 5965
11008, 5965, 5964, 5885
11009, 5886, 5887, 5966
11010, 5966, 5965, 5886
11011, 5887, 5888, 5967
11012, 5967, 5966, 5887
11013, 5888, 5889, 5968
11014, 5968, 5967, 5888
11015, 5889, 5890, 5969
11016, 5969, 5968, 5889
11017, 5890, 5891, 5970
11018, 5970, 5969, 5890
11019, 5891, 5892, 5971
11020, 5971, 5970, 5891
11021, 5892, 5893, 5972
11022, 5972, 5971, 5892
11023, 5893, 5894, 5973
11024, 5973, 5972, 5893
11025, 5894, 5895, 5974
11026, 5974, 5973, 5894
11027, 5895, 5896, 5975
11028, 5975, 5974, 5895
11029, 5896, 5897, 5976
11030, 5976, 5975, 5896
11031, 5897, 5898, 5977
11032, 5977, 5976, 5897
11033, 5898, 5899, 5978
11034, 5978, 5977, 5898
11035, 5899, 5900, 5979
11036, 5979, 5978, 5899
11037, 5900, 5901, 5980
11038, 5980, 5979, 5900
11039, 5901,  693,  694
11040,  694, 5980, 5901
11041,  707, 5902, 5981
11042, 5981,  706,  707
11043, 5902, 5903, 5982
11044, 5982, 5981, 5902
11045, 5903, 5904, 5983
11046, 5983, 5982, 5903
11047, 5904, 5905, 5984
11048, 5984, 5983, 5904
11049, 5905, 5906, 5985
11050, 5985, 5984, 5905
11051, 5906, 5907, 5986
11052, 5986, 5985, 5906
11053, 5907, 5908, 5987
11054, 5987, 5986, 5907
11055, 5908, 5909, 5988
11056, 5988, 5987, 5908
11057, 5909, 5910, 5989
11058, 5989, 5988, 5909
11059, 5910, 5911, 5990
11060, 5990, 5989, 5910
11061, 5911, 5912, 5991
11062, 5991, 5990, 5911
11063, 5912, 5913, 5992
11064, 5992, 5991, 5912
11065, 5913, 5914, 5993
11066, 5993, 5992, 5913
11067, 5914, 5915, 5994
11068, 5994, 5993, 5914
11069, 5915, 5916, 5995
11070, 5995, 5994, 5915
11071, 5916, 5917, 5996
11072, 5996, 5995, 5916
11073, 5917, 5918, 5997
11074, 5997, 5996, 5917
11075, 5918, 5919, 5998
11076, 5998, 5997, 5918
11077, 5919, 5920, 5999
11078, 5999, 5998, 5919
11079, 5920, 5921, 6000
11080, 6000, 5999, 5920
11081, 5921, 5922, 6001
11082, 6001, 6000, 5921
11083, 5922, 5923, 6002
11084, 6002, 6001, 5922
11085, 5923, 5924, 6003
11086, 6003, 6002, 5923
11087, 5924, 5925, 6004
11088, 6004, 6003, 5924
11089, 5925, 5926, 6005
11090, 6005, 6004, 5925
11091, 5926, 5927, 6006
11092, 6006, 6005, 5926
11093, 5927, 5928, 6007
11094, 6007, 6006, 5927
11095, 5928, 5929, 6008
11096, 6008, 6007, 5928
11097, 5929, 5930, 6009
11098, 6009, 6008, 5929
11099, 5930, 5931, 6010
11100, 6010, 6009, 5930
11101, 5931, 5932, 6011
11102, 6011, 6010, 5931
11103, 5932, 5933, 6012
11104, 6012, 6011, 5932
11105, 5933, 5934, 6013
11106, 6013, 6012, 5933
11107, 5934, 5935, 6014
11108, 6014, 6013, 5934
11109, 5935, 5936, 6015
11110, 6015, 6014, 5935
11111, 5936, 5937, 6016
11112, 6016, 6015, 5936
11113, 5937, 5938, 6017
11114, 6017, 6016, 5937
11115, 5938, 5939, 6018
11116, 6018, 6017, 5938
11117, 5939, 5940, 6019
11118, 6019, 6018, 5939
11119, 5940, 5941, 6020
11120, 6020, 6019, 5940
11121, 5941, 5942, 6021
11122, 6021, 6020, 5941
11123, 5942, 5943, 6022
11124, 6022, 6021, 5942
11125, 5943, 5944, 6023
11126, 6023, 6022, 5943
11127, 5944, 5945, 6024
11128, 6024, 6023, 5944
11129, 5945, 5946, 6025
11130, 6025, 6024, 5945
11131, 5946, 5947, 6026
11132, 6026, 6025, 5946
11133, 5947, 5948, 6027
11134, 6027, 6026, 5947
11135, 5948, 5949, 6028
11136, 6028, 6027, 5948
11137, 5949, 5950, 6029
11138, 6029, 6028, 5949
11139, 5950, 5951, 6030
11140, 6030, 6029, 5950
11141, 5951, 5952, 6031
11142, 6031, 6030, 5951
11143, 5952, 5953, 6032
11144, 6032, 6031, 5952
11145, 5953, 5954, 6033
11146, 6033, 6032, 5953
11147, 5954, 5955, 6034
11148, 6034, 6033, 5954
11149, 5955, 5956, 6035
11150, 6035, 6034, 5955
11151, 5956, 5957, 6036
11152, 6036, 6035, 5956
11153, 5957, 5958, 6037
11154, 6037, 6036, 5957
11155, 5958, 5959, 6038
11156, 6038, 6037, 5958
11157, 5959, 5960, 6039
11158, 6039, 6038, 5959
11159, 5960, 5961, 6040
11160, 6040, 6039, 5960
11161, 5961, 5962, 6041
11162, 6041, 6040, 5961
11163, 5962, 5963, 6042
11164, 6042, 6041, 5962
11165, 5963, 5964, 6043
11166, 6043, 6042, 5963
11167, 5964, 5965, 6044
11168, 6044, 6043, 5964
11169, 5965, 5966, 6045
11170, 6045, 6044, 5965
11171, 5966, 5967, 6046
11172, 6046, 6045, 5966
11173, 5967, 5968, 6047
11174, 6047, 6046, 5967
11175, 5968, 5969, 6048
11176, 6048, 6047, 5968
11177, 5969, 5970, 6049
11178, 6049, 6048, 5969
11179, 5970, 5971, 6050
11180, 6050, 6049, 5970
11181, 5971, 5972, 6051
11182, 6051, 6050, 5971
11183, 5972, 5973, 6052
11184, 6052, 6051, 5972
11185, 5973, 5974, 6053
11186, 6053, 6052, 5973
11187, 5974, 5975, 6054
11188, 6054, 6053, 5974
11189, 5975, 5976, 6055
11190, 6055, 6054, 5975
11191, 5976, 5977, 6056
11192, 6056, 6055, 5976
11193, 5977, 5978, 6057
11194, 6057, 6056, 5977
11195, 5978, 5979, 6058
11196, 6058, 6057, 5978
11197, 5979, 5980, 6059
11198, 6059, 6058, 5979
11199, 5980,  694,  695
11200,  695, 6059, 5980
11201,  706, 5981, 6060
11202, 6060,  705,  706
11203, 5981, 5982, 6061
11204, 6061, 6060, 5981
11205, 5982, 5983, 6062
11206, 6062, 6061, 5982
11207, 5983, 5984, 6063
11208, 6063, 6062, 5983
11209, 5984, 5985, 6064
11210, 6064, 6063, 5984
11211, 5985, 5986, 6065
11212, 6065, 6064, 5985
11213, 5986, 5987, 6066
11214, 6066, 6065, 5986
11215, 5987, 5988, 6067
11216, 6067, 6066, 5987
11217, 5988, 5989, 6068
11218, 6068, 6067, 5988
11219, 5989, 5990, 6069
11220, 6069, 6068, 5989
11221, 5990, 5991, 6070
11222, 6070, 6069, 5990
11223, 5991, 5992, 6071
11224, 6071, 6070, 5991
11225, 5992, 5993, 6072
11226, 6072, 6071, 5992
11227, 5993, 5994, 6073
11228, 6073, 6072, 5993
11229, 5994, 5995, 6074
11230, 6074, 6073, 5994
11231, 5995, 5996, 6075
11232, 6075, 6074, 5995
11233, 5996, 5997, 6076
11234, 6076, 6075, 5996
11235, 5997, 5998, 6077
11236, 6077, 6076, 5997
11237, 5998, 5999, 6078
11238, 6078, 6077, 5998
11239, 5999, 6000, 6079
11240, 6079, 6078, 5999
11241, 6000, 6001, 6080
11242, 6080, 6079, 6000
11243, 6001, 6002, 6081
11244, 6081, 6080, 6001
11245, 6002, 6003, 6082
11246, 6082, 6081, 6002
11247, 6003, 6004, 6083
11248, 6083, 6082, 6003
11249, 6004, 6005, 6084
11250, 6084, 6083, 6004
11251, 6005, 6006, 6085
11252, 6085, 6084, 6005
11253, 6006, 6007, 6086
11254, 6086, 6085, 6006
11255, 6007, 6008, 6087
11256, 6087, 6086, 6007
11257, 6008, 6009, 6088
11258, 6088, 6087, 6008
11259, 6009, 6010, 6089
11260, 6089, 6088, 6009
11261, 6010, 6011, 6090
11262, 6090, 6089, 6010
11263, 6011, 6012, 6091
11264, 6091, 6090, 6011
11265, 6012, 6013, 6092
11266, 6092, 6091, 6012
11267, 6013, 6014, 6093
11268, 6093, 6092, 6013
11269, 6014, 6015, 6094
11270, 6094, 6093, 6014
11271, 6015, 6016, 6095
11272, 6095, 6094, 6015
11273, 6016, 6017, 6096
11274, 6096, 6095, 6016
11275, 6017, 6018, 6097
11276, 6097, 6096, 6017
11277, 6018, 6019, 6098
11278, 6098, 6097, 6018
11279, 6019, 6020, 6099
11280, 6099, 6098, 6019
11281, 6020, 6021, 6100
11282, 6100, 6099, 6020
11283, 6021, 6022, 6101
11284, 6101, 6100, 6021
11285, 6022, 6023, 6102
11286, 6102, 6101, 6022
11287, 6023, 6024, 6103
11288, 6103, 6102, 6023
11289, 6024, 6025, 6104
11290, 6104, 6103, 6024
11291, 6025, 6026, 6105
11292, 6105, 6104, 6025
11293, 6026, 6027, 6106
11294, 6106, 6105, 6026
11295, 6027, 6028, 6107
11296, 6107, 6106, 6027
11297, 6028, 6029, 6108
11298, 6108, 6107, 6028
11299, 6029, 6030, 6109
11300, 6109, 6108, 6029
11301, 6030, 6031, 6110
11302, 6110, 6109, 6030
11303, 6031, 6032, 6111
11304, 6111, 6110, 6031
11305, 6032, 6033, 6112
11306, 6112, 6111, 6032
11307, 6033, 6034, 6113
11308, 6113, 6112, 6033
11309, 6034, 6035, 6114
11310, 6114, 6113, 6034
11311, 6035, 6036, 6115
11312, 6115, 6114, 6035
11313, 6036, 6037, 6116
11314, 6116, 6115, 6036
11315, 6037, 6038, 6117
11316, 6117, 6116, 6037
11317, 6038, 6039, 6118
11318, 6118, 6117, 6038
11319, 6039, 6040, 6119
11320, 6119, 6118, 6039
11321, 6040, 6041, 6120
11322, 6120, 6119, 6040
11323, 6041, 6042, 6121
11324, 6121, 6120, 6041
11325, 6042, 6043, 6122
11326, 6122, 6121, 6042
11327, 6043, 6044, 6123
11328, 6123, 6122, 6043
11329, 6044, 6045, 6124
11330, 6124, 6123, 6044
11331, 6045, 6046, 6125
11332, 6125, 6124, 6045
11333, 6046, 6047, 6126
11334, 6126, 6125, 6046
11335, 6047, 6048, 6127
11336, 6127, 6126, 6047
11337, 6048, 6049, 6128
11338, 6128, 6127, 6048
11339, 6049, 6050, 6129
11340, 6129, 6128, 6049
11341, 6050, 6051, 6130
11342, 6130, 6129, 6050
11343, 6051, 6052, 6131
11344, 6131, 6130, 6051
11345, 6052, 6053, 6132
11346, 6132, 6131, 6052
11347, 6053, 6054, 6133
11348, 6133, 6132, 6053
11349, 6054, 6055, 6134
11350, 6134, 6133, 6054
11351, 6055, 6056, 6135
11352, 6135, 6134, 6055
11353, 6056, 6057, 6136
11354, 6136, 6135, 6056
11355, 6057, 6058, 6137
11356, 6137, 6136, 6057
11357, 6058, 6059, 6138
11358, 6138, 6137, 6058
11359, 6059,  695,  696
11360,  696, 6138, 6059
11361,  705, 6060, 6139
11362, 6139,  704,  705
11363, 6060, 6061, 6140
11364, 6140, 6139, 6060
11365, 6061, 6062, 6141
11366, 6141, 6140, 6061
11367, 6062, 6063, 6142
11368, 6142, 6141, 6062
11369, 6063, 6064, 6143
11370, 6143, 6142, 6063
11371, 6064, 6065, 6144
11372, 6144, 6143, 6064
11373, 6065, 6066, 6145
11374, 6145, 6144, 6065
11375, 6066, 6067, 6146
11376, 6146, 6145, 6066
11377, 6067, 6068, 6147
11378, 6147, 6146, 6067
11379, 6068, 6069, 6148
11380, 6148, 6147, 6068
11381, 6069, 6070, 6149
11382, 6149, 6148, 6069
11383, 6070, 6071, 6150
11384, 6150, 6149, 6070
11385, 6071, 6072, 6151
11386, 6151, 6150, 6071
11387, 6072, 6073, 6152
11388, 6152, 6151, 6072
11389, 6073, 6074, 6153
11390, 6153, 6152, 6073
11391, 6074, 6075, 6154
11392, 6154, 6153, 6074
11393, 6075, 6076, 6155
11394, 6155, 6154, 6075
11395, 6076, 6077, 6156
11396, 6156, 6155, 6076
11397, 6077, 6078, 6157
11398, 6157, 6156, 6077
11399, 6078, 6079, 6158
11400, 6158, 6157, 6078
11401, 6079, 6080, 6159
11402, 6159, 6158, 6079
11403, 6080, 6081, 6160
11404, 6160, 6159, 6080
11405, 6081, 6082, 6161
11406, 6161, 6160, 6081
11407, 6082, 6083, 6162
11408, 6162, 6161, 6082
11409, 6083, 6084, 6163
11410, 6163, 6162, 6083
11411, 6084, 6085, 6164
11412, 6164, 6163, 6084
11413, 6085, 6086, 6165
11414, 6165, 6164, 6085
11415, 6086, 6087, 6166
11416, 6166, 6165, 6086
11417, 6087, 6088, 6167
11418, 6167, 6166, 6087
11419, 6088, 6089, 6168
11420, 6168, 6167, 6088
11421, 6089, 6090, 6169
11422, 6169, 6168, 6089
11423, 6090, 6091, 6170
11424, 6170, 6169, 6090
11425, 6091, 6092, 6171
11426, 6171, 6170, 6091
11427, 6092, 6093, 6172
11428, 6172, 6171, 6092
11429, 6093, 6094, 6173
11430, 6173, 6172, 6093
11431, 6094, 6095, 6174
11432, 6174, 6173, 6094
11433, 6095, 6096, 6175
11434, 6175, 6174, 6095
11435, 6096, 6097, 6176
11436, 6176, 6175, 6096
11437, 6097, 6098, 6177
11438, 6177, 6176, 6097
11439, 6098, 6099, 6178
11440, 6178, 6177, 6098
11441, 6099, 6100, 6179
11442, 6179, 6178, 6099
11443, 6100, 6101, 6180
11444, 6180, 6179, 6100
11445, 6101, 6102, 6181
11446, 6181, 6180, 6101
11447, 6102, 6103, 6182
11448, 6182, 6181, 6102
11449, 6103, 6104, 6183
11450, 6183, 6182, 6103
11451, 6104, 6105, 6184
11452, 6184, 6183, 6104
11453, 6105, 6106, 6185
11454, 6185, 6184, 6105
11455, 6106, 6107, 6186
11456, 6186, 6185, 6106
11457, 6107, 6108, 6187
11458, 6187, 6186, 6107
11459, 6108, 6109, 6188
11460, 6188, 6187, 6108
11461, 6109, 6110, 6189
11462, 6189, 6188, 6109
11463, 6110, 6111, 6190
11464, 6190, 6189, 6110
11465, 6111, 6112, 6191
11466, 6191, 6190, 6111
11467, 6112, 6113, 6192
11468, 6192, 6191, 6112
11469, 6113, 6114, 6193
11470, 6193, 6192, 6113
11471, 6114, 6115, 6194
11472, 6194, 6193, 6114
11473, 6115, 6116, 6195
11474, 6195, 6194, 6115
11475, 6116, 6117, 6196
11476, 6196, 6195, 6116
11477, 6117, 6118, 6197
11478, 6197, 6196, 6117
11479, 6118, 6119, 6198
11480, 6198, 6197, 6118
11481, 6119, 6120, 6199
11482, 6199, 6198, 6119
11483, 6120, 6121, 6200
11484, 6200, 6199, 6120
11485, 6121, 6122, 6201
11486, 6201, 6200, 6121
11487, 6122, 6123, 6202
11488, 6202, 6201, 6122
11489, 6123, 6124, 6203
11490, 6203, 6202, 6123
11491, 6124, 6125, 6204
11492, 6204, 6203, 6124
11493, 6125, 6126, 6205
11494, 6205, 6204, 6125
11495, 6126, 6127, 6206
11496, 6206, 6205, 6126
11497, 6127, 6128, 6207
11498, 6207, 6206, 6127
11499, 6128, 6129, 6208
11500, 6208, 6207, 6128
11501, 6129, 6130, 6209
11502, 6209, 6208, 6129
11503, 6130, 6131, 6210
11504, 6210, 6209, 6130
11505, 6131, 6132, 6211
11506, 6211, 6210, 6131
11507, 6132, 6133, 6212
11508, 6212, 6211, 6132
11509, 6133, 6134, 6213
11510, 6213, 6212, 6133
11511, 6134, 6135, 6214
11512, 6214, 6213, 6134
11513, 6135, 6136, 6215
11514, 6215, 6214, 6135
11515, 6136, 6137, 6216
11516, 6216, 6215, 6136
11517, 6137, 6138, 6217
11518, 6217, 6216, 6137
11519, 6138,  696,  697
11520,  697, 6217, 6138
11521,  704, 6139, 6218
11522, 6218,  703,  704
11523, 6139, 6140, 6219
11524, 6219, 6218, 6139
11525, 6140, 6141, 6220
11526, 6220, 6219, 6140
11527, 6141, 6142, 6221
11528, 6221, 6220, 6141
11529, 6142, 6143, 6222
11530, 6222, 6221, 6142
11531, 6143, 6144, 6223
11532, 6223, 6222, 6143
11533, 6144, 6145, 6224
11534, 6224, 6223, 6144
11535, 6145, 6146, 6225
11536, 6225, 6224, 6145
11537, 6146, 6147, 6226
11538, 6226, 6225, 6146
11539, 6147, 6148, 6227
11540, 6227, 6226, 6147
11541, 6148, 6149, 6228
11542, 6228, 6227, 6148
11543, 6149, 6150, 6229
11544, 6229, 6228, 6149
11545, 6150, 6151, 6230
11546, 6230, 6229, 6150
11547, 6151, 6152, 6231
11548, 6231, 6230, 6151
11549, 6152, 6153, 6232
11550, 6232, 6231, 6152
11551, 6153, 6154, 6233
11552, 6233, 6232, 6153
11553, 6154, 6155, 6234
11554, 6234, 6233, 6154
11555, 6155, 6156, 6235
11556, 6235, 6234, 6155
11557, 6156, 6157, 6236
11558, 6236, 6235, 6156
11559, 6157, 6158, 6237
11560, 6237, 6236, 6157
11561, 6158, 6159, 6238
11562, 6238, 6237, 6158
11563, 6159, 6160, 6239
11564, 6239, 6238, 6159
11565, 6160, 6161, 6240
11566, 6240, 6239, 6160
11567, 6161, 6162, 6241
11568, 6241, 6240, 6161
11569, 6162, 6163, 6242
11570, 6242, 6241, 6162
11571, 6163, 6164, 6243
11572, 6243, 6242, 6163
11573, 6164, 6165, 6244
11574, 6244, 6243, 6164
11575, 6165, 6166, 6245
11576, 6245, 6244, 6165
11577, 6166, 6167, 6246
11578, 6246, 6245, 6166
11579, 6167, 6168, 6247
11580, 6247, 6246, 6167
11581, 6168, 6169, 6248
11582, 6248, 6247, 6168
11583, 6169, 6170, 6249
11584, 6249, 6248, 6169
11585, 6170, 6171, 6250
11586, 6250, 6249, 6170
11587, 6171, 6172, 6251
11588, 6251, 6250, 6171
11589, 6172, 6173, 6252
11590, 6252, 6251, 6172
11591, 6173, 6174, 6253
11592, 6253, 6252, 6173
11593, 6174, 6175, 6254
11594, 6254, 6253, 6174
11595, 6175, 6176, 6255
11596, 6255, 6254, 6175
11597, 6176, 6177, 6256
11598, 6256, 6255, 6176
11599, 6177, 6178, 6257
11600, 6257, 6256, 6177
11601, 6178, 6179, 6258
11602, 6258, 6257, 6178
11603, 6179, 6180, 6259
11604, 6259, 6258, 6179
11605, 6180, 6181, 6260
11606, 6260, 6259, 6180
11607, 6181, 6182, 6261
11608, 6261, 6260, 6181
11609, 6182, 6183, 6262
11610, 6262, 6261, 6182
11611, 6183, 6184, 6263
11612, 6263, 6262, 6183
11613, 6184, 6185, 6264
11614, 6264, 6263, 6184
11615, 6185, 6186, 6265
11616, 6265, 6264, 6185
11617, 6186, 6187, 6266
11618, 6266, 6265, 6186
11619, 6187, 6188, 6267
11620, 6267, 6266, 6187
11621, 6188, 6189, 6268
11622, 6268, 6267, 6188
11623, 6189, 6190, 6269
11624, 6269, 6268, 6189
11625, 6190, 6191, 6270
11626, 6270, 6269, 6190
11627, 6191, 6192, 6271
11628, 6271, 6270, 6191
11629, 6192, 6193, 6272
11630, 6272, 6271, 6192
11631, 6193, 6194, 6273
11632, 6273, 6272, 6193
11633, 6194, 6195, 6274
11634, 6274, 6273, 6194
11635, 6195, 6196, 6275
11636, 6275, 6274, 6195
11637, 6196, 6197, 6276
11638, 6276, 6275, 6196
11639, 6197, 6198, 6277
11640, 6277, 6276, 6197
11641, 6198, 6199, 6278
11642, 6278, 6277, 6198
11643, 6199, 6200, 6279
11644, 6279, 6278, 6199
11645, 6200, 6201, 6280
11646, 6280, 6279, 6200
11647, 6201, 6202, 6281
11648, 6281, 6280, 6201
11649, 6202, 6203, 6282
11650, 6282, 6281, 6202
11651, 6203, 6204, 6283
11652, 6283, 6282, 6203
11653, 6204, 6205, 6284
11654, 6284, 6283, 6204
11655, 6205, 6206, 6285
11656, 6285, 6284, 6205
11657, 6206, 6207, 6286
11658, 6286, 6285, 6206
11659, 6207, 6208, 6287
11660, 6287, 6286, 6207
11661, 6208, 6209, 6288
11662, 6288, 6287, 6208
11663, 6209, 6210, 6289
11664, 6289, 6288, 6209
11665, 6210, 6211, 6290
11666, 6290, 6289, 6210
11667, 6211, 6212, 6291
11668, 6291, 6290, 6211
11669, 6212, 6213, 6292
11670, 6292, 6291, 6212
11671, 6213, 6214, 6293
11672, 6293, 6292, 6213
11673, 6214, 6215, 6294
11674, 6294, 6293, 6214
11675, 6215, 6216, 6295
11676, 6295, 6294, 6215
11677, 6216, 6217, 6296
11678, 6296, 6295, 6216
11679, 6217,  697,  698
11680,  698, 6296, 6217
11681,  703, 6218, 6297
11682, 6297,  702,  703
11683, 6218, 6219, 6298
11684, 6298, 6297, 6218
11685, 6219, 6220, 6299
11686, 6299, 6298, 6219
11687, 6220, 6221, 6300
11688, 6300, 6299, 6220
11689, 6221, 6222, 6301
11690, 6301, 6300, 6221
11691, 6222, 6223, 6302
11692, 6302, 6301, 6222
11693, 6223, 6224, 6303
11694, 6303, 6302, 6223
11695, 6224, 6225, 6304
11696, 6304, 6303, 6224
11697, 6225, 6226, 6305
11698, 6305, 6304, 6225
11699, 6226, 6227, 6306
11700, 6306, 6305, 6226
11701, 6227, 6228, 6307
11702, 6307, 6306, 6227
11703, 6228, 6229, 6308
11704, 6308, 6307, 6228
11705, 6229, 6230, 6309
11706, 6309, 6308, 6229
11707, 6230, 6231, 6310
11708, 6310, 6309, 6230
11709, 6231, 6232, 6311
11710, 6311, 6310, 6231
11711, 6232, 6233, 6312
11712, 6312, 6311, 6232
11713, 6233, 6234, 6313
11714, 6313, 6312, 6233
11715, 6234, 6235, 6314
11716, 6314, 6313, 6234
11717, 6235, 6236, 6315
11718, 6315, 6314, 6235
11719, 6236, 6237, 6316
11720, 6316, 6315, 6236
11721, 6237, 6238, 6317
11722, 6317, 6316, 6237
11723, 6238, 6239, 6318
11724, 6318, 6317, 6238
11725, 6239, 6240, 6319
11726, 6319, 6318, 6239
11727, 6240, 6241, 6320
11728, 6320, 6319, 6240
11729, 6241, 6242, 6321
11730, 6321, 6320, 6241
11731, 6242, 6243, 6322
11732, 6322, 6321, 6242
11733, 6243, 6244, 6323
11734, 6323, 6322, 6243
11735, 6244, 6245, 6324
11736, 6324, 6323, 6244
11737, 6245, 6246, 6325
11738, 6325, 6324, 6245
11739, 6246, 6247, 6326
11740, 6326, 6325, 6246
11741, 6247, 6248, 6327
11742, 6327, 6326, 6247
11743, 6248, 6249, 6328
11744, 6328, 6327, 6248
11745, 6249, 6250, 6329
11746, 6329, 6328, 6249
11747, 6250, 6251, 6330
11748, 6330, 6329, 6250
11749, 6251, 6252, 6331
11750, 6331, 6330, 6251
11751, 6252, 6253, 6332
11752, 6332, 6331, 6252
11753, 6253, 6254, 6333
11754, 6333, 6332, 6253
11755, 6254, 6255, 6334
11756, 6334, 6333, 6254
11757, 6255, 6256, 6335
11758, 6335, 6334, 6255
11759, 6256, 6257, 6336
11760, 6336, 6335, 6256
11761, 6257, 6258, 6337
11762, 6337, 6336, 6257
11763, 6258, 6259, 6338
11764, 6338, 6337, 6258
11765, 6259, 6260, 6339
11766, 6339, 6338, 6259
11767, 6260, 6261, 6340
11768, 6340, 6339, 6260
11769, 6261, 6262, 6341
11770, 6341, 6340, 6261
11771, 6262, 6263, 6342
11772, 6342, 6341, 6262
11773, 6263, 6264, 6343
11774, 6343, 6342, 6263
11775, 6264, 6265, 6344
11776, 6344, 6343, 6264
11777, 6265, 6266, 6345
11778, 6345, 6344, 6265
11779, 6266, 6267, 6346
11780, 6346, 6345, 6266
11781, 6267, 6268, 6347
11782, 6347, 6346, 6267
11783, 6268, 6269, 6348
11784, 6348, 6347, 6268
11785, 6269, 6270, 6349
11786, 6349, 6348, 6269
11787, 6270, 6271, 6350
11788, 6350, 6349, 6270
11789, 6271, 6272, 6351
11790, 6351, 6350, 6271
11791, 6272, 6273, 6352
11792, 6352, 6351, 6272
11793, 6273, 6274, 6353
11794, 6353, 6352, 6273
11795, 6274, 6275, 6354
11796, 6354, 6353, 6274
11797, 6275, 6276, 6355
11798, 6355, 6354, 6275
11799, 6276, 6277, 6356
11800, 6356, 6355, 6276
11801, 6277, 6278, 6357
11802, 6357, 6356, 6277
11803, 6278, 6279, 6358
11804, 6358, 6357, 6278
11805, 6279, 6280, 6359
11806, 6359, 6358, 6279
11807, 6280, 6281, 6360
11808, 6360, 6359, 6280
11809, 6281, 6282, 6361
11810, 6361, 6360, 6281
11811, 6282, 6283, 6362
11812, 6362, 6361, 6282
11813, 6283, 6284, 6363
11814, 6363, 6362, 6283
11815, 6284, 6285, 6364
11816, 6364, 6363, 6284
11817, 6285, 6286, 6365
11818, 6365, 6364, 6285
11819, 6286, 6287, 6366
11820, 6366, 6365, 6286
11821, 6287, 6288, 6367
11822, 6367, 6366, 6287
11823, 6288, 6289, 6368
11824, 6368, 6367, 6288
11825, 6289, 6290, 6369
11826, 6369, 6368, 6289
11827, 6290, 6291, 6370
11828, 6370, 6369, 6290
11829, 6291, 6292, 6371
11830, 6371, 6370, 6291
11831, 6292, 6293, 6372
11832, 6372, 6371, 6292
11833, 6293, 6294, 6373
11834, 6373, 6372, 6293
11835, 6294, 6295, 6374
11836, 6374, 6373, 6294
11837, 6295, 6296, 6375
11838, 6375, 6374, 6295
11839, 6296,  698,  699
11840,  699, 6375, 6296
11841,  702, 6297, 6376
11842, 6376,  701,  702
11843, 6297, 6298, 6377
11844, 6377, 6376, 6297
11845, 6298, 6299, 6378
11846, 6378, 6377, 6298
11847, 6299, 6300, 6379
11848, 6379, 6378, 6299
11849, 6300, 6301, 6380
11850, 6380, 6379, 6300
11851, 6301, 6302, 6381
11852, 6381, 6380, 6301
11853, 6302, 6303, 6382
11854, 6382, 6381, 6302
11855, 6303, 6304, 6383
11856, 6383, 6382, 6303
11857, 6304, 6305, 6384
11858, 6384, 6383, 6304
11859, 6305, 6306, 6385
11860, 6385, 6384, 6305
11861, 6306, 6307, 6386
11862, 6386, 6385, 6306
11863, 6307, 6308, 6387
11864, 6387, 6386, 6307
11865, 6308, 6309, 6388
11866, 6388, 6387, 6308
11867, 6309, 6310, 6389
11868, 6389, 6388, 6309
11869, 6310, 6311, 6390
11870, 6390, 6389, 6310
11871, 6311, 6312, 6391
11872, 6391, 6390, 6311
11873, 6312, 6313, 6392
11874, 6392, 6391, 6312
11875, 6313, 6314, 6393
11876, 6393, 6392, 6313
11877, 6314, 6315, 6394
11878, 6394, 6393, 6314
11879, 6315, 6316, 6395
11880, 6395, 6394, 6315
11881, 6316, 6317, 6396
11882, 6396, 6395, 6316
11883, 6317, 6318, 6397
11884, 6397, 6396, 6317
11885, 6318, 6319, 6398
11886, 6398, 6397, 6318
11887, 6319, 6320, 6399
11888, 6399, 6398, 6319
11889, 6320, 6321, 6400
11890, 6400, 6399, 6320
11891, 6321, 6322, 6401
11892, 6401, 6400, 6321
11893, 6322, 6323, 6402
11894, 6402, 6401, 6322
11895, 6323, 6324, 6403
11896, 6403, 6402, 6323
11897, 6324, 6325, 6404
11898, 6404, 6403, 6324
11899, 6325, 6326, 6405
11900, 6405, 6404, 6325
11901, 6326, 6327, 6406
11902, 6406, 6405, 6326
11903, 6327, 6328, 6407
11904, 6407, 6406, 6327
11905, 6328, 6329, 6408
11906, 6408, 6407, 6328
11907, 6329, 6330, 6409
11908, 6409, 6408, 6329
11909, 6330, 6331, 6410
11910, 6410, 6409, 6330
11911, 6331, 6332, 6411
11912, 6411, 6410, 6331
11913, 6332, 6333, 6412
11914, 6412, 6411, 6332
11915, 6333, 6334, 6413
11916, 6413, 6412, 6333
11917, 6334, 6335, 6414
11918, 6414, 6413, 6334
11919, 6335, 6336, 6415
11920, 6415, 6414, 6335
11921, 6336, 6337, 6416
11922, 6416, 6415, 6336
11923, 6337, 6338, 6417
11924, 6417, 6416, 6337
11925, 6338, 6339, 6418
11926, 6418, 6417, 6338
11927, 6339, 6340, 6419
11928, 6419, 6418, 6339
11929, 6340, 6341, 6420
11930, 6420, 6419, 6340
11931, 6341, 6342, 6421
11932, 6421, 6420, 6341
11933, 6342, 6343, 6422
11934, 6422, 6421, 6342
11935, 6343, 6344, 6423
11936, 6423, 6422, 6343
11937, 6344, 6345, 6424
11938, 6424, 6423, 6344
11939, 6345, 6346, 6425
11940, 6425, 6424, 6345
11941, 6346, 6347, 6426
11942, 6426, 6425, 6346
11943, 6347, 6348, 6427
11944, 6427, 6426, 6347
11945, 6348, 6349, 6428
11946, 6428, 6427, 6348
11947, 6349, 6350, 6429
11948, 6429, 6428, 6349
11949, 6350, 6351, 6430
11950, 6430, 6429, 6350
11951, 6351, 6352, 6431
11952, 6431, 6430, 6351
11953, 6352, 6353, 6432
11954, 6432, 6431, 6352
11955, 6353, 6354, 6433
11956, 6433, 6432, 6353
11957, 6354, 6355, 6434
11958, 6434, 6433, 6354
11959, 6355, 6356, 6435
11960, 6435, 6434, 6355
11961, 6356, 6357, 6436
11962, 6436, 6435, 6356
11963, 6357, 6358, 6437
11964, 6437, 6436, 6357
11965, 6358, 6359, 6438
11966, 6438, 6437, 6358
11967, 6359, 6360, 6439
11968, 6439, 6438, 6359
11969, 6360, 6361, 6440
11970, 6440, 6439, 6360
11971, 6361, 6362, 6441
11972, 6441, 6440, 6361
11973, 6362, 6363, 6442
11974, 6442, 6441, 6362
11975, 6363, 6364, 6443
11976, 6443, 6442, 6363
11977, 6364, 6365, 6444
11978, 6444, 6443, 6364
11979, 6365, 6366, 6445
11980, 6445, 6444, 6365
11981, 6366, 6367, 6446
11982, 6446, 6445, 6366
11983, 6367, 6368, 6447
11984, 6447, 6446, 6367
11985, 6368, 6369, 6448
11986, 6448, 6447, 6368
11987, 6369, 6370, 6449
11988, 6449, 6448, 6369
11989, 6370, 6371, 6450
11990, 6450, 6449, 6370
11991, 6371, 6372, 6451
11992, 6451, 6450, 6371
11993, 6372, 6373, 6452
11994, 6452, 6451, 6372
11995, 6373, 6374, 6453
11996, 6453, 6452, 6373
11997, 6374, 6375, 6454
11998, 6454, 6453, 6374
11999, 6375,  699,  700
12000,  700, 6454, 6375
12001,  701, 6376,  511
12002,  511,   11,  701
12003, 6376, 6377,  512
12004,  512,  511, 6376
12005, 6377, 6378,  513
12006,  513,  512, 6377
12007, 6378, 6379,  514
12008,  514,  513, 6378
12009, 6379, 6380,  515
12010,  515,  514, 6379
12011, 6380, 6381,  516
12012,  516,  515, 6380
12013, 6381, 6382,  517
12014,  517,  516, 6381
12015, 6382, 6383,  518
12016,  518,  517, 6382
12017, 6383, 6384,  519
12018,  519,  518, 6383
12019, 6384, 6385,  520
12020,  520,  519, 6384
12021, 6385, 6386,  521
12022,  521,  520, 6385
12023, 6386, 6387,  522
12024,  522,  521, 6386
12025, 6387, 6388,  523
12026,  523,  522, 6387
12027, 6388, 6389,  524
12028,  524,  523, 6388
12029, 6389, 6390,  525
12030,  525,  524, 6389
12031, 6390, 6391,  526
12032,  526,  525, 6390
12033, 6391, 6392,  527
12034,  527,  526, 6391
12035, 6392, 6393,  528
12036,  528,  527, 6392
12037, 6393, 6394,  529
12038,  529,  528, 6393
12039, 6394, 6395,  530
12040,  530,  529, 6394
12041, 6395, 6396,  531
12042,  531,  530, 6395
12043, 6396, 6397,  532
12044,  532,  531, 6396
12045, 6397, 6398,  533
12046,  533,  532, 6397
12047, 6398, 6399,  534
12048,  534,  533, 6398
12049, 6399, 6400,  535
12050,  535,  534, 6399
12051, 6400, 6401,  536
12052,  536,  535, 6400
12053, 6401, 6402,  537
12054,  537,  536, 6401
12055, 6402, 6403,  538
12056,  538,  537, 6402
12057, 6403, 6404,  539
12058,  539,  538, 6403
12059, 6404, 6405,  540
12060,  540,  539, 6404
12061, 6405, 6406,  541
12062,  541,  540, 6405
12063, 6406, 6407,  542
12064,  542,  541, 6406
12065, 6407, 6408,  543
12066,  543,  542, 6407
12067, 6408, 6409,  544
12068,  544,  543, 6408
12069, 6409, 6410,  545
12070,  545,  544, 6409
12071, 6410, 6411,  546
12072,  546,  545, 6410
12073, 6411, 6412,  547
12074,  547,  546, 6411
12075, 6412, 6413,  548
12076,  548,  547, 6412
12077, 6413, 6414,  549
12078,  549,  548, 6413
12079, 6414, 6415,  550
12080,  550,  549, 6414
12081, 6415, 6416,  551
12082,  551,  550, 6415
12083, 6416, 6417,  552
12084,  552,  551, 6416
12085, 6417, 6418,  553
12086,  553,  552, 6417
12087, 6418, 6419,  554
12088,  554,  553, 6418
12089, 6419, 6420,  555
12090,  555,  554, 6419
12091, 6420, 6421,  556
12092,  556,  555, 6420
12093, 6421, 6422,  557
12094,  557,  556, 6421
12095, 6422, 6423,  558
12096,  558,  557, 6422
12097, 6423, 6424,  559
12098,  559,  558, 6423
12099, 6424, 6425,  560
12100,  560,  559, 6424
12101, 6425, 6426,  561
12102,  561,  560, 6425
12103, 6426, 6427,  562
12104,  562,  561, 6426
12105, 6427, 6428,  563
12106,  563,  562, 6427
12107, 6428, 6429,  564
12108,  564,  563, 6428
12109, 6429, 6430,  565
12110,  565,  564, 6429
12111, 6430, 6431,  566
12112,  566,  565, 6430
12113, 6431, 6432,  567
12114,  567,  566, 6431
12115, 6432, 6433,  568
12116,  568,  567, 6432
12117, 6433, 6434,  569
12118,  569,  568, 6433
12119, 6434, 6435,  570
12120,  570,  569, 6434
12121, 6435, 6436,  571
12122,  571,  570, 6435
12123, 6436, 6437,  572
12124,  572,  571, 6436
12125, 6437, 6438,  573
12126,  573,  572, 6437
12127, 6438, 6439,  574
12128,  574,  573, 6438
12129, 6439, 6440,  575
12130,  575,  574, 6439
12131, 6440, 6441,  576
12132,  576,  575, 6440
12133, 6441, 6442,  577
12134,  577,  576, 6441
12135, 6442, 6443,  578
12136,  578,  577, 6442
12137, 6443, 6444,  579
12138,  579,  578, 6443
12139, 6444, 6445,  580
12140,  580,  579, 6444
12141, 6445, 6446,  581
12142,  581,  580, 6445
12143, 6446, 6447,  582
12144,  582,  581, 6446
12145, 6447, 6448,  583
12146,  583,  582, 6447
12147, 6448, 6449,  584
12148,  584,  583, 6448
12149, 6449, 6450,  585
12150,  585,  584, 6449
12151, 6450, 6451,  586
12152,  586,  585, 6450
12153, 6451, 6452,  587
12154,  587,  586, 6451
12155, 6452, 6453,  588
12156,  588,  587, 6452
12157, 6453, 6454,  589
12158,  589,  588, 6453
12159, 6454,  700,   12
12160,   12,  589, 6454
12161,   14,  685, 6455
12162, 6455,  808,   14
12163,  685,  684, 6456
12164, 6456, 6455,  685
12165,  684,  683, 6457
12166, 6457, 6456,  684
12167,  683,  682, 6458
12168, 6458, 6457,  683
12169,  682,  681, 6459
12170, 6459, 6458,  682
12171,  681,  680, 6460
12172, 6460, 6459,  681
12173,  680,  679, 6461
12174, 6461, 6460,  680
12175,  679,  678, 6462
12176, 6462, 6461,  679
12177,  678,  677, 6463
12178, 6463, 6462,  678
12179,  677,  676, 6464
12180, 6464, 6463,  677
12181,  676,  675, 6465
12182, 6465, 6464,  676
12183,  675,  674, 6466
12184, 6466, 6465,  675
12185,  674,  673, 6467
12186, 6467, 6466,  674
12187,  673,  672, 6468
12188, 6468, 6467,  673
12189,  672,  671, 6469
12190, 6469, 6468,  672
12191,  671,  670, 6470
12192, 6470, 6469,  671
12193,  670,  669, 6471
12194, 6471, 6470,  670
12195,  669,  668, 6472
12196, 6472, 6471,  669
12197,  668,  667, 6473
12198, 6473, 6472,  668
12199,  667,  666, 6474
12200, 6474, 6473,  667
12201,  666,  665, 6475
12202, 6475, 6474,  666
12203,  665,  664, 6476
12204, 6476, 6475,  665
12205,  664,  663, 6477
12206, 6477, 6476,  664
12207,  663,  662, 6478
12208, 6478, 6477,  663
12209,  662,  661, 6479
12210, 6479, 6478,  662
12211,  661,  660, 6480
12212, 6480, 6479,  661
12213,  660,  659, 6481
12214, 6481, 6480,  660
12215,  659,  658, 6482
12216, 6482, 6481,  659
12217,  658,  657, 6483
12218, 6483, 6482,  658
12219,  657,  656, 6484
12220, 6484, 6483,  657
12221,  656,  655, 6485
12222, 6485, 6484,  656
12223,  655,  654, 6486
12224, 6486, 6485,  655
12225,  654,  653, 6487
12226, 6487, 6486,  654
12227,  653,  652, 6488
12228, 6488, 6487,  653
12229,  652,  651, 6489
12230, 6489, 6488,  652
12231,  651,  650, 6490
12232, 6490, 6489,  651
12233,  650,  649, 6491
12234, 6491, 6490,  650
12235,  649,  648, 6492
12236, 6492, 6491,  649
12237,  648,  647, 6493
12238, 6493, 6492,  648
12239,  647,  646, 6494
12240, 6494, 6493,  647
12241,  646,  645, 6495
12242, 6495, 6494,  646
12243,  645,  644, 6496
12244, 6496, 6495,  645
12245,  644,  643, 6497
12246, 6497, 6496,  644
12247,  643,  642, 6498
12248, 6498, 6497,  643
12249,  642,  641, 6499
12250, 6499, 6498,  642
12251,  641,  640, 6500
12252, 6500, 6499,  641
12253,  640,  639, 6501
12254, 6501, 6500,  640
12255,  639,  638, 6502
12256, 6502, 6501,  639
12257,  638,  637, 6503
12258, 6503, 6502,  638
12259,  637,  636, 6504
12260, 6504, 6503,  637
12261,  636,  635, 6505
12262, 6505, 6504,  636
12263,  635,  634, 6506
12264, 6506, 6505,  635
12265,  634,  633, 6507
12266, 6507, 6506,  634
12267,  633,  632, 6508
12268, 6508, 6507,  633
12269,  632,  631, 6509
12270, 6509, 6508,  632
12271,  631,  630, 6510
12272, 6510, 6509,  631
12273,  630,  629, 6511
12274, 6511, 6510,  630
12275,  629,  628, 6512
12276, 6512, 6511,  629
12277,  628,  627, 6513
12278, 6513, 6512,  628
12279,  627,  626, 6514
12280, 6514, 6513,  627
12281,  626,  625, 6515
12282, 6515, 6514,  626
12283,  625,  624, 6516
12284, 6516, 6515,  625
12285,  624,  623, 6517
12286, 6517, 6516,  624
12287,  623,  622, 6518
12288, 6518, 6517,  623
12289,  622,  621, 6519
12290, 6519, 6518,  622
12291,  621,  620, 6520
12292, 6520, 6519,  621
12293,  620,  619, 6521
12294, 6521, 6520,  620
12295,  619,  618, 6522
12296, 6522, 6521,  619
12297,  618,  617, 6523
12298, 6523, 6522,  618
12299,  617,  616, 6524
12300, 6524, 6523,  617
12301,  616,  615, 6525
12302, 6525, 6524,  616
12303,  615,  614, 6526
12304, 6526, 6525,  615
12305,  614,  613, 6527
12306, 6527, 6526,  614
12307,  613,  612, 6528
12308, 6528, 6527,  613
12309,  612,  611, 6529
12310, 6529, 6528,  612
12311,  611,  610, 6530
12312, 6530, 6529,  611
12313,  610,  609, 6531
12314, 6531, 6530,  610
12315,  609,  608, 6532
12316, 6532, 6531,  609
12317,  608,  607, 6533
12318, 6533, 6532,  608
12319,  607,   13,  716
12320,  716, 6533,  607
12321,  808, 6455, 6534
12322, 6534,  807,  808
12323, 6455, 6456, 6535
12324, 6535, 6534, 6455
12325, 6456, 6457, 6536
12326, 6536, 6535, 6456
12327, 6457, 6458, 6537
12328, 6537, 6536, 6457
12329, 6458, 6459, 6538
12330, 6538, 6537, 6458
12331, 6459, 6460, 6539
12332, 6539, 6538, 6459
12333, 6460, 6461, 6540
12334, 6540, 6539, 6460
12335, 6461, 6462, 6541
12336, 6541, 6540, 6461
12337, 6462, 6463, 6542
12338, 6542, 6541, 6462
12339, 6463, 6464, 6543
12340, 6543, 6542, 6463
12341, 6464, 6465, 6544
12342, 6544, 6543, 6464
12343, 6465, 6466, 6545
12344, 6545, 6544, 6465
12345, 6466, 6467, 6546
12346, 6546, 6545, 6466
12347, 6467, 6468, 6547
12348, 6547, 6546, 6467
12349, 6468, 6469, 6548
12350, 6548, 6547, 6468
12351, 6469, 6470, 6549
12352, 6549, 6548, 6469
12353, 6470, 6471, 6550
12354, 6550, 6549, 6470
12355, 6471, 6472, 6551
12356, 6551, 6550, 6471
12357, 6472, 6473, 6552
12358, 6552, 6551, 6472
12359, 6473, 6474, 6553
12360, 6553, 6552, 6473
12361, 6474, 6475, 6554
12362, 6554, 6553, 6474
12363, 6475, 6476, 6555
12364, 6555, 6554, 6475
12365, 6476, 6477, 6556
12366, 6556, 6555, 6476
12367, 6477, 6478, 6557
12368, 6557, 6556, 6477
12369, 6478, 6479, 6558
12370, 6558, 6557, 6478
12371, 6479, 6480, 6559
12372, 6559, 6558, 6479
12373, 6480, 6481, 6560
12374, 6560, 6559, 6480
12375, 6481, 6482, 6561
12376, 6561, 6560, 6481
12377, 6482, 6483, 6562
12378, 6562, 6561, 6482
12379, 6483, 6484, 6563
12380, 6563, 6562, 6483
12381, 6484, 6485, 6564
12382, 6564, 6563, 6484
12383, 6485, 6486, 6565
12384, 6565, 6564, 6485
12385, 6486, 6487, 6566
12386, 6566, 6565, 6486
12387, 6487, 6488, 6567
12388, 6567, 6566, 6487
12389, 6488, 6489, 6568
12390, 6568, 6567, 6488
12391, 6489, 6490, 6569
12392, 6569, 6568, 6489
12393, 6490, 6491, 6570
12394, 6570, 6569, 6490
12395, 6491, 6492, 6571
12396, 6571, 6570, 6491
12397, 6492, 6493, 6572
12398, 6572, 6571, 6492
12399, 6493, 6494, 6573
12400, 6573, 6572, 6493
12401, 6494, 6495, 6574
12402, 6574, 6573, 6494
12403, 6495, 6496, 6575
12404, 6575, 6574, 6495
12405, 6496, 6497, 6576
12406, 6576, 6575, 6496
12407, 6497, 6498, 6577
12408, 6577, 6576, 6497
12409, 6498, 6499, 6578
12410, 6578, 6577, 6498
12411, 6499, 6500, 6579
12412, 6579, 6578, 6499
12413, 6500, 6501, 6580
12414, 6580, 6579, 6500
12415, 6501, 6502, 6581
12416, 6581, 6580, 6501
12417, 6502, 6503, 6582
12418, 6582, 6581, 6502
12419, 6503, 6504, 6583
12420, 6583, 6582, 6503
12421, 6504, 6505, 6584
12422, 6584, 6583, 6504
12423, 6505, 6506, 6585
12424, 6585, 6584, 6505
12425, 6506, 6507, 6586
12426, 6586, 6585, 6506
12427, 6507, 6508, 6587
12428, 6587, 6586, 6507
12429, 6508, 6509, 6588
12430, 6588, 6587, 6508
12431, 6509, 6510, 6589
12432, 6589, 6588, 6509
12433, 6510, 6511, 6590
12434, 6590, 6589, 6510
12435, 6511, 6512, 6591
12436, 6591, 6590, 6511
12437, 6512, 6513, 6592
12438, 6592, 6591, 6512
12439, 6513, 6514, 6593
12440, 6593, 6592, 6513
12441, 6514, 6515, 6594
12442, 6594, 6593, 6514
12443, 6515, 6516, 6595
12444, 6595, 6594, 6515
12445, 6516, 6517, 6596
12446, 6596, 6595, 6516
12447, 6517, 6518, 6597
12448, 6597, 6596, 6517
12449, 6518, 6519, 6598
12450, 6598, 6597, 6518
12451, 6519, 6520, 6599
12452, 6599, 6598, 6519
12453, 6520, 6521, 6600
12454, 6600, 6599, 6520
12455, 6521, 6522, 6601
12456, 6601, 6600, 6521
12457, 6522, 6523, 6602
12458, 6602, 6601, 6522
12459, 6523, 6524, 6603
12460, 6603, 6602, 6523
12461, 6524, 6525, 6604
12462, 6604, 6603, 6524
12463, 6525, 6526, 6605
12464, 6605, 6604, 6525
12465, 6526, 6527, 6606
12466, 6606, 6605, 6526
12467, 6527, 6528, 6607
12468, 6607, 6606, 6527
12469, 6528, 6529, 6608
12470, 6608, 6607, 6528
12471, 6529, 6530, 6609
12472, 6609, 6608, 6529
12473, 6530, 6531, 6610
12474, 6610, 6609, 6530
12475, 6531, 6532, 6611
12476, 6611, 6610, 6531
12477, 6532, 6533, 6612
12478, 6612, 6611, 6532
12479, 6533,  716,  717
12480,  717, 6612, 6533
12481,  807, 6534, 6613
12482, 6613,  806,  807
12483, 6534, 6535, 6614
12484, 6614, 6613, 6534
12485, 6535, 6536, 6615
12486, 6615, 6614, 6535
12487, 6536, 6537, 6616
12488, 6616, 6615, 6536
12489, 6537, 6538, 6617
12490, 6617, 6616, 6537
12491, 6538, 6539, 6618
12492, 6618, 6617, 6538
12493, 6539, 6540, 6619
12494, 6619, 6618, 6539
12495, 6540, 6541, 6620
12496, 6620, 6619, 6540
12497, 6541, 6542, 6621
12498, 6621, 6620, 6541
12499, 6542, 6543, 6622
12500, 6622, 6621, 6542
12501, 6543, 6544, 6623
12502, 6623, 6622, 6543
12503, 6544, 6545, 6624
12504, 6624, 6623, 6544
12505, 6545, 6546, 6625
12506, 6625, 6624, 6545
12507, 6546, 6547, 6626
12508, 6626, 6625, 6546
12509, 6547, 6548, 6627
12510, 6627, 6626, 6547
12511, 6548, 6549, 6628
12512, 6628, 6627, 6548
12513, 6549, 6550, 6629
12514, 6629, 6628, 6549
12515, 6550, 6551, 6630
12516, 6630, 6629, 6550
12517, 6551, 6552, 6631
12518, 6631, 6630, 6551
12519, 6552, 6553, 6632
12520, 6632, 6631, 6552
12521, 6553, 6554, 6633
12522, 6633, 6632, 6553
12523, 6554, 6555, 6634
12524, 6634, 6633, 6554
12525, 6555, 6556, 6635
12526, 6635, 6634, 6555
12527, 6556, 6557, 6636
12528, 6636, 6635, 6556
12529, 6557, 6558, 6637
12530, 6637, 6636, 6557
12531, 6558, 6559, 6638
12532, 6638, 6637, 6558
12533, 6559, 6560, 6639
12534, 6639, 6638, 6559
12535, 6560, 6561, 6640
12536, 6640, 6639, 6560
12537, 6561, 6562, 6641
12538, 6641, 6640, 6561
12539, 6562, 6563, 6642
12540, 6642, 6641, 6562
12541, 6563, 6564, 6643
12542, 6643, 6642, 6563
12543, 6564, 6565, 6644
12544, 6644, 6643, 6564
12545, 6565, 6566, 6645
12546, 6645, 6644, 6565
12547, 6566, 6567, 6646
12548, 6646, 6645, 6566
12549, 6567, 6568, 6647
12550, 6647, 6646, 6567
12551, 6568, 6569, 6648
12552, 6648, 6647, 6568
12553, 6569, 6570, 6649
12554, 6649, 6648, 6569
12555, 6570, 6571, 6650
12556, 6650, 6649, 6570
12557, 6571, 6572, 6651
12558, 6651, 6650, 6571
12559, 6572, 6573, 6652
12560, 6652, 6651, 6572
12561, 6573, 6574, 6653
12562, 6653, 6652, 6573
12563, 6574, 6575, 6654
12564, 6654, 6653, 6574
12565, 6575, 6576, 6655
12566, 6655, 6654, 6575
12567, 6576, 6577, 6656
12568, 6656, 6655, 6576
12569, 6577, 6578, 6657
12570, 6657, 6656, 6577
12571, 6578, 6579, 6658
12572, 6658, 6657, 6578
12573, 6579, 6580, 6659
12574, 6659, 6658, 6579
12575, 6580, 6581, 6660
12576, 6660, 6659, 6580
12577, 6581, 6582, 6661
12578, 6661, 6660, 6581
12579, 6582, 6583, 6662
12580, 6662, 6661, 6582
12581, 6583, 6584, 6663
12582, 6663, 6662, 6583
12583, 6584, 6585, 6664
12584, 6664, 6663, 6584
12585, 6585, 6586, 6665
12586, 6665, 6664, 6585
12587, 6586, 6587, 6666
12588, 6666, 6665, 6586
12589, 6587, 6588, 6667
12590, 6667, 6666, 6587
12591, 6588, 6589, 6668
12592, 6668, 6667, 6588
12593, 6589, 6590, 6669
12594, 6669, 6668, 6589
12595, 6590, 6591, 6670
12596, 6670, 6669, 6590
12597, 6591, 6592, 6671
12598, 6671, 6670, 6591
12599, 6592, 6593, 6672
12600, 6672, 6671, 6592
12601, 6593, 6594, 6673
12602, 6673, 6672, 6593
12603, 6594, 6595, 6674
12604, 6674, 6673, 6594
12605, 6595, 6596, 6675
12606, 6675, 6674, 6595
12607, 6596, 6597, 6676
12608, 6676, 6675, 6596
12609, 6597, 6598, 6677
12610, 6677, 6676, 6597
12611, 6598, 6599, 6678
12612, 6678, 6677, 6598
12613, 6599, 6600, 6679
12614, 6679, 6678, 6599
12615, 6600, 6601, 6680
12616, 6680, 6679, 6600
12617, 6601, 6602, 6681
12618, 6681, 6680, 6601
12619, 6602, 6603, 6682
12620, 6682, 6681, 6602
12621, 6603, 6604, 6683
12622, 6683, 6682, 6603
12623, 6604, 6605, 6684
12624, 6684, 6683, 6604
12625, 6605, 6606, 6685
12626, 6685, 6684, 6605
12627, 6606, 6607, 6686
12628, 6686, 6685, 6606
12629, 6607, 6608, 6687
12630, 6687, 6686, 6607
12631, 6608, 6609, 6688
12632, 6688, 6687, 6608
12633, 6609, 6610, 6689
12634, 6689, 6688, 6609
12635, 6610, 6611, 6690
12636, 6690, 6689, 6610
12637, 6611, 6612, 6691
12638, 6691, 6690, 6611
12639, 6612,  717,  718
12640,  718, 6691, 6612
12641,  806, 6613, 6692
12642, 6692,  805,  806
12643, 6613, 6614, 6693
12644, 6693, 6692, 6613
12645, 6614, 6615, 6694
12646, 6694, 6693, 6614
12647, 6615, 6616, 6695
12648, 6695, 6694, 6615
12649, 6616, 6617, 6696
12650, 6696, 6695, 6616
12651, 6617, 6618, 6697
12652, 6697, 6696, 6617
12653, 6618, 6619, 6698
12654, 6698, 6697, 6618
12655, 6619, 6620, 6699
12656, 6699, 6698, 6619
12657, 6620, 6621, 6700
12658, 6700, 6699, 6620
12659, 6621, 6622, 6701
12660, 6701, 6700, 6621
12661, 6622, 6623, 6702
12662, 6702, 6701, 6622
12663, 6623, 6624, 6703
12664, 6703, 6702, 6623
12665, 6624, 6625, 6704
12666, 6704, 6703, 6624
12667, 6625, 6626, 6705
12668, 6705, 6704, 6625
12669, 6626, 6627, 6706
12670, 6706, 6705, 6626
12671, 6627, 6628, 6707
12672, 6707, 6706, 6627
12673, 6628, 6629, 6708
12674, 6708, 6707, 6628
12675, 6629, 6630, 6709
12676, 6709, 6708, 6629
12677, 6630, 6631, 6710
12678, 6710, 6709, 6630
12679, 6631, 6632, 6711
12680, 6711, 6710, 6631
12681, 6632, 6633, 6712
12682, 6712, 6711, 6632
12683, 6633, 6634, 6713
12684, 6713, 6712, 6633
12685, 6634, 6635, 6714
12686, 6714, 6713, 6634
12687, 6635, 6636, 6715
12688, 6715, 6714, 6635
12689, 6636, 6637, 6716
12690, 6716, 6715, 6636
12691, 6637, 6638, 6717
12692, 6717, 6716, 6637
12693, 6638, 6639, 6718
12694, 6718, 6717, 6638
12695, 6639, 6640, 6719
12696, 6719, 6718, 6639
12697, 6640, 6641, 6720
12698, 6720, 6719, 6640
12699, 6641, 6642, 6721
12700, 6721, 6720, 6641
12701, 6642, 6643, 6722
12702, 6722, 6721, 6642
12703, 6643, 6644, 6723
12704, 6723, 6722, 6643
12705, 6644, 6645, 6724
12706, 6724, 6723, 6644
12707, 6645, 6646, 6725
12708, 6725, 6724, 6645
12709, 6646, 6647, 6726
12710, 6726, 6725, 6646
12711, 6647, 6648, 6727
12712, 6727, 6726, 6647
12713, 6648, 6649, 6728
12714, 6728, 6727, 6648
12715, 6649, 6650, 6729
12716, 6729, 6728, 6649
12717, 6650, 6651, 6730
12718, 6730, 6729, 6650
12719, 6651, 6652, 6731
12720, 6731, 6730, 6651
12721, 6652, 6653, 6732
12722, 6732, 6731, 6652
12723, 6653, 6654, 6733
12724, 6733, 6732, 6653
12725, 6654, 6655, 6734
12726, 6734, 6733, 6654
12727, 6655, 6656, 6735
12728, 6735, 6734, 6655
12729, 6656, 6657, 6736
12730, 6736, 6735, 6656
12731, 6657, 6658, 6737
12732, 6737, 6736, 6657
12733, 6658, 6659, 6738
12734, 6738, 6737, 6658
12735, 6659, 6660, 6739
12736, 6739, 6738, 6659
12737, 6660, 6661, 6740
12738, 6740, 6739, 6660
12739, 6661, 6662, 6741
12740, 6741, 6740, 6661
12741, 6662, 6663, 6742
12742, 6742, 6741, 6662
12743, 6663, 6664, 6743
12744, 6743, 6742, 6663
12745, 6664, 6665, 6744
12746, 6744, 6743, 6664
12747, 6665, 6666, 6745
12748, 6745, 6744, 6665
12749, 6666, 6667, 6746
12750, 6746, 6745, 6666
12751, 6667, 6668, 6747
12752, 6747, 6746, 6667
12753, 6668, 6669, 6748
12754, 6748, 6747, 6668
12755, 6669, 6670, 6749
12756, 6749, 6748, 6669
12757, 6670, 6671, 6750
12758, 6750, 6749, 6670
12759, 6671, 6672, 6751
12760, 6751, 6750, 6671
12761, 6672, 6673, 6752
12762, 6752, 6751, 6672
12763, 6673, 6674, 6753
12764, 6753, 6752, 6673
12765, 6674, 6675, 6754
12766, 6754, 6753, 6674
12767, 6675, 6676, 6755
12768, 6755, 6754, 6675
12769, 6676, 6677, 6756
12770, 6756, 6755, 6676
12771, 6677, 6678, 6757
12772, 6757, 6756, 6677
12773, 6678, 6679, 6758
12774, 6758, 6757, 6678
12775, 6679, 6680, 6759
12776, 6759, 6758, 6679
12777, 6680, 6681, 6760
12778, 6760, 6759, 6680
12779, 6681, 6682, 6761
12780, 6761, 6760, 6681
12781, 6682, 6683, 6762
12782, 6762, 6761, 6682
12783, 6683, 6684, 6763
12784, 6763, 6762, 6683
12785, 6684, 6685, 6764
12786, 6764, 6763, 6684
12787, 6685, 6686, 6765
12788, 6765, 6764, 6685
12789, 6686, 6687, 6766
12790, 6766, 6765, 6686
12791, 6687, 6688, 6767
12792, 6767, 6766, 6687
12793, 6688, 6689, 6768
12794, 6768, 6767, 6688
12795, 6689, 6690, 6769
12796, 6769, 6768, 6689
12797, 6690, 6691, 6770
12798, 6770, 6769, 6690
12799, 6691,  718,  719
12800,  719, 6770, 6691
12801,  805, 6692, 6771
12802, 6771,  804,  805
12803, 6692, 6693, 6772
12804, 6772, 6771, 6692
12805, 6693, 6694, 6773
12806, 6773, 6772, 6693
12807, 6694, 6695, 6774
12808, 6774, 6773, 6694
12809, 6695, 6696, 6775
12810, 6775, 6774, 6695
12811, 6696, 6697, 6776
12812, 6776, 6775, 6696
12813, 6697, 6698, 6777
12814, 6777, 6776, 6697
12815, 6698, 6699, 6778
12816, 6778, 6777, 6698
12817, 6699, 6700, 6779
12818, 6779, 6778, 6699
12819, 6700, 6701, 6780
12820, 6780, 6779, 6700
12821, 6701, 6702, 6781
12822, 6781, 6780, 6701
12823, 6702, 6703, 6782
12824, 6782, 6781, 6702
12825, 6703, 6704, 6783
12826, 6783, 6782, 6703
12827, 6704, 6705, 6784
12828, 6784, 6783, 6704
12829, 6705, 6706, 6785
12830, 6785, 6784, 6705
12831, 6706, 6707, 6786
12832, 6786, 6785, 6706
12833, 6707, 6708, 6787
12834, 6787, 6786, 6707
12835, 6708, 6709, 6788
12836, 6788, 6787, 6708
12837, 6709, 6710, 6789
12838, 6789, 6788, 6709
12839, 6710, 6711, 6790
12840, 6790, 6789, 6710
12841, 6711, 6712, 6791
12842, 6791, 6790, 6711
12843, 6712, 6713, 6792
12844, 6792, 6791, 6712
12845, 6713, 6714, 6793
12846, 6793, 6792, 6713
12847, 6714, 6715, 6794
12848, 6794, 6793, 6714
12849, 6715, 6716, 6795
12850, 6795, 6794, 6715
12851, 6716, 6717, 6796
12852, 6796, 6795, 6716
12853, 6717, 6718, 6797
12854, 6797, 6796, 6717
12855, 6718, 6719, 6798
12856, 6798, 6797, 6718
12857, 6719, 6720, 6799
12858, 6799, 6798, 6719
12859, 6720, 6721, 6800
12860, 6800, 6799, 6720
12861, 6721, 6722, 6801
12862, 6801, 6800, 6721
12863, 6722, 6723, 6802
12864, 6802, 6801, 6722
12865, 6723, 6724, 6803
12866, 6803, 6802, 6723
12867, 6724, 6725, 6804
12868, 6804, 6803, 6724
12869, 6725, 6726, 6805
12870, 6805, 6804, 6725
12871, 6726, 6727, 6806
12872, 6806, 6805, 6726
12873, 6727, 6728, 6807
12874, 6807, 6806, 6727
12875, 6728, 6729, 6808
12876, 6808, 6807, 6728
12877, 6729, 6730, 6809
12878, 6809, 6808, 6729
12879, 6730, 6731, 6810
12880, 6810, 6809, 6730
12881, 6731, 6732, 6811
12882, 6811, 6810, 6731
12883, 6732, 6733, 6812
12884, 6812, 6811, 6732
12885, 6733, 6734, 6813
12886, 6813, 6812, 6733
12887, 6734, 6735, 6814
12888, 6814, 6813, 6734
12889, 6735, 6736, 6815
12890, 6815, 6814, 6735
12891, 6736, 6737, 6816
12892, 6816, 6815, 6736
12893, 6737, 6738, 6817
12894, 6817, 6816, 6737
12895, 6738, 6739, 6818
12896, 6818, 6817, 6738
12897, 6739, 6740, 6819
12898, 6819, 6818, 6739
12899, 6740, 6741, 6820
12900, 6820, 6819, 6740
12901, 6741, 6742, 6821
12902, 6821, 6820, 6741
12903, 6742, 6743, 6822
12904, 6822, 6821, 6742
12905, 6743, 6744, 6823
12906, 6823, 6822, 6743
12907, 6744, 6745, 6824
12908, 6824, 6823, 6744
12909, 6745, 6746, 6825
12910, 6825, 6824, 6745
12911, 6746, 6747, 6826
12912, 6826, 6825, 6746
12913, 6747, 6748, 6827
12914, 6827, 6826, 6747
12915, 6748, 6749, 6828
12916, 6828, 6827, 6748
12917, 6749, 6750, 6829
12918, 6829, 6828, 6749
12919, 6750, 6751, 6830
12920, 6830, 6829, 6750
12921, 6751, 6752, 6831
12922, 6831, 6830, 6751
12923, 6752, 6753, 6832
12924, 6832, 6831, 6752
12925, 6753, 6754, 6833
12926, 6833, 6832, 6753
12927, 6754, 6755, 6834
12928, 6834, 6833, 6754
12929, 6755, 6756, 6835
12930, 6835, 6834, 6755
12931, 6756, 6757, 6836
12932, 6836, 6835, 6756
12933, 6757, 6758, 6837
12934, 6837, 6836, 6757
12935, 6758, 6759, 6838
12936, 6838, 6837, 6758
12937, 6759, 6760, 6839
12938, 6839, 6838, 6759
12939, 6760, 6761, 6840
12940, 6840, 6839, 6760
12941, 6761, 6762, 6841
12942, 6841, 6840, 6761
12943, 6762, 6763, 6842
12944, 6842, 6841, 6762
12945, 6763, 6764, 6843
12946, 6843, 6842, 6763
12947, 6764, 6765, 6844
12948, 6844, 6843, 6764
12949, 6765, 6766, 6845
12950, 6845, 6844, 6765
12951, 6766, 6767, 6846
12952, 6846, 6845, 6766
12953, 6767, 6768, 6847
12954, 6847, 6846, 6767
12955, 6768, 6769, 6848
12956, 6848, 6847, 6768
12957, 6769, 6770, 6849
12958, 6849, 6848, 6769
12959, 6770,  719,  720
12960,  720, 6849, 6770
12961,  804, 6771, 6850
12962, 6850,  803,  804
12963, 6771, 6772, 6851
12964, 6851, 6850, 6771
12965, 6772, 6773, 6852
12966, 6852, 6851, 6772
12967, 6773, 6774, 6853
12968, 6853, 6852, 6773
12969, 6774, 6775, 6854
12970, 6854, 6853, 6774
12971, 6775, 6776, 6855
12972, 6855, 6854, 6775
12973, 6776, 6777, 6856
12974, 6856, 6855, 6776
12975, 6777, 6778, 6857
12976, 6857, 6856, 6777
12977, 6778, 6779, 6858
12978, 6858, 6857, 6778
12979, 6779, 6780, 6859
12980, 6859, 6858, 6779
12981, 6780, 6781, 6860
12982, 6860, 6859, 6780
12983, 6781, 6782, 6861
12984, 6861, 6860, 6781
12985, 6782, 6783, 6862
12986, 6862, 6861, 6782
12987, 6783, 6784, 6863
12988, 6863, 6862, 6783
12989, 6784, 6785, 6864
12990, 6864, 6863, 6784
12991, 6785, 6786, 6865
12992, 6865, 6864, 6785
12993, 6786, 6787, 6866
12994, 6866, 6865, 6786
12995, 6787, 6788, 6867
12996, 6867, 6866, 6787
12997, 6788, 6789, 6868
12998, 6868, 6867, 6788
12999, 6789, 6790, 6869
13000, 6869, 6868, 6789
13001, 6790, 6791, 6870
13002, 6870, 6869, 6790
13003, 6791, 6792, 6871
13004, 6871, 6870, 6791
13005, 6792, 6793, 6872
13006, 6872, 6871, 6792
13007, 6793, 6794, 6873
13008, 6873, 6872, 6793
13009, 6794, 6795, 6874
13010, 6874, 6873, 6794
13011, 6795, 6796, 6875
13012, 6875, 6874, 6795
13013, 6796, 6797, 6876
13014, 6876, 6875, 6796
13015, 6797, 6798, 6877
13016, 6877, 6876, 6797
13017, 6798, 6799, 6878
13018, 6878, 6877, 6798
13019, 6799, 6800, 6879
13020, 6879, 6878, 6799
13021, 6800, 6801, 6880
13022, 6880, 6879, 6800
13023, 6801, 6802, 6881
13024, 6881, 6880, 6801
13025, 6802, 6803, 6882
13026, 6882, 6881, 6802
13027, 6803, 6804, 6883
13028, 6883, 6882, 6803
13029, 6804, 6805, 6884
13030, 6884, 6883, 6804
13031, 6805, 6806, 6885
13032, 6885, 6884, 6805
13033, 6806, 6807, 6886
13034, 6886, 6885, 6806
13035, 6807, 6808, 6887
13036, 6887, 6886, 6807
13037, 6808, 6809, 6888
13038, 6888, 6887, 6808
13039, 6809, 6810, 6889
13040, 6889, 6888, 6809
13041, 6810, 6811, 6890
13042, 6890, 6889, 6810
13043, 6811, 6812, 6891
13044, 6891, 6890, 6811
13045, 6812, 6813, 6892
13046, 6892, 6891, 6812
13047, 6813, 6814, 6893
13048, 6893, 6892, 6813
13049, 6814, 6815, 6894
13050, 6894, 6893, 6814
13051, 6815, 6816, 6895
13052, 6895, 6894, 6815
13053, 6816, 6817, 6896
13054, 6896, 6895, 6816
13055, 6817, 6818, 6897
13056, 6897, 6896, 6817
13057, 6818, 6819, 6898
13058, 6898, 6897, 6818
13059, 6819, 6820, 6899
13060, 6899, 6898, 6819
13061, 6820, 6821, 6900
13062, 6900, 6899, 6820
13063, 6821, 6822, 6901
13064, 6901, 6900, 6821
13065, 6822, 6823, 6902
13066, 6902, 6901, 6822
13067, 6823, 6824, 6903
13068, 6903, 6902, 6823
13069, 6824, 6825, 6904
13070, 6904, 6903, 6824
13071, 6825, 6826, 6905
13072, 6905, 6904, 6825
13073, 6826, 6827, 6906
13074, 6906, 6905, 6826
13075, 6827, 6828, 6907
13076, 6907, 6906, 6827
13077, 6828, 6829, 6908
13078, 6908, 6907, 6828
13079, 6829, 6830, 6909
13080, 6909, 6908, 6829
13081, 6830, 6831, 6910
13082, 6910, 6909, 6830
13083, 6831, 6832, 6911
13084, 6911, 6910, 6831
13085, 6832, 6833, 6912
13086, 6912, 6911, 6832
13087, 6833, 6834, 6913
13088, 6913, 6912, 6833
13089, 6834, 6835, 6914
13090, 6914, 6913, 6834
13091, 6835, 6836, 6915
13092, 6915, 6914, 6835
13093, 6836, 6837, 6916
13094, 6916, 6915, 6836
13095, 6837, 6838, 6917
13096, 6917, 6916, 6837
13097, 6838, 6839, 6918
13098, 6918, 6917, 6838
13099, 6839, 6840, 6919
13100, 6919, 6918, 6839
13101, 6840, 6841, 6920
13102, 6920, 6919, 6840
13103, 6841, 6842, 6921
13104, 6921, 6920, 6841
13105, 6842, 6843, 6922
13106, 6922, 6921, 6842
13107, 6843, 6844, 6923
13108, 6923, 6922, 6843
13109, 6844, 6845, 6924
13110, 6924, 6923, 6844
13111, 6845, 6846, 6925
13112, 6925, 6924, 6845
13113, 6846, 6847, 6926
13114, 6926, 6925, 6846
13115, 6847, 6848, 6927
13116, 6927, 6926, 6847
13117, 6848, 6849, 6928
13118, 6928, 6927, 6848
13119, 6849,  720,  721
13120,  721, 6928, 6849
13121,  803, 6850, 6929
13122, 6929,  802,  803
13123, 6850, 6851, 6930
13124, 6930, 6929, 6850
13125, 6851, 6852, 6931
13126, 6931, 6930, 6851
13127, 6852, 6853, 6932
13128, 6932, 6931, 6852
13129, 6853, 6854, 6933
13130, 6933, 6932, 6853
13131, 6854, 6855, 6934
13132, 6934, 6933, 6854
13133, 6855, 6856, 6935
13134, 6935, 6934, 6855
13135, 6856, 6857, 6936
13136, 6936, 6935, 6856
13137, 6857, 6858, 6937
13138, 6937, 6936, 6857
13139, 6858, 6859, 6938
13140, 6938, 6937, 6858
13141, 6859, 6860, 6939
13142, 6939, 6938, 6859
13143, 6860, 6861, 6940
13144, 6940, 6939, 6860
13145, 6861, 6862, 6941
13146, 6941, 6940, 6861
13147, 6862, 6863, 6942
13148, 6942, 6941, 6862
13149, 6863, 6864, 6943
13150, 6943, 6942, 6863
13151, 6864, 6865, 6944
13152, 6944, 6943, 6864
13153, 6865, 6866, 6945
13154, 6945, 6944, 6865
13155, 6866, 6867, 6946
13156, 6946, 6945, 6866
13157, 6867, 6868, 6947
13158, 6947, 6946, 6867
13159, 6868, 6869, 6948
13160, 6948, 6947, 6868
13161, 6869, 6870, 6949
13162, 6949, 6948, 6869
13163, 6870, 6871, 6950
13164, 6950, 6949, 6870
13165, 6871, 6872, 6951
13166, 6951, 6950, 6871
13167, 6872, 6873, 6952
13168, 6952, 6951, 6872
13169, 6873, 6874, 6953
13170, 6953, 6952, 6873
13171, 6874, 6875, 6954
13172, 6954, 6953, 6874
13173, 6875, 6876, 6955
13174, 6955, 6954, 6875
13175, 6876, 6877, 6956
13176, 6956, 6955, 6876
13177, 6877, 6878, 6957
13178, 6957, 6956, 6877
13179, 6878, 6879, 6958
13180, 6958, 6957, 6878
13181, 6879, 6880, 6959
13182, 6959, 6958, 6879
13183, 6880, 6881, 6960
13184, 6960, 6959, 6880
13185, 6881, 6882, 6961
13186, 6961, 6960, 6881
13187, 6882, 6883, 6962
13188, 6962, 6961, 6882
13189, 6883, 6884, 6963
13190, 6963, 6962, 6883
13191, 6884, 6885, 6964
13192, 6964, 6963, 6884
13193, 6885, 6886, 6965
13194, 6965, 6964, 6885
13195, 6886, 6887, 6966
13196, 6966, 6965, 6886
13197, 6887, 6888, 6967
13198, 6967, 6966, 6887
13199, 6888, 6889, 6968
13200, 6968, 6967, 6888
13201, 6889, 6890, 6969
13202, 6969, 6968, 6889
13203, 6890, 6891, 6970
13204, 6970, 6969, 6890
13205, 6891, 6892, 6971
13206, 6971, 6970, 6891
13207, 6892, 6893, 6972
13208, 6972, 6971, 6892
13209, 6893, 6894, 6973
13210, 6973, 6972, 6893
13211, 6894, 6895, 6974
13212, 6974, 6973, 6894
13213, 6895, 6896, 6975
13214, 6975, 6974, 6895
13215, 6896, 6897, 6976
13216, 6976, 6975, 6896
13217, 6897, 6898, 6977
13218, 6977, 6976, 6897
13219, 6898, 6899, 6978
13220, 6978, 6977, 6898
13221, 6899, 6900, 6979
13222, 6979, 6978, 6899
13223, 6900, 6901, 6980
13224, 6980, 6979, 6900
13225, 6901, 6902, 6981
13226, 6981, 6980, 6901
13227, 6902, 6903, 6982
13228, 6982, 6981, 6902
13229, 6903, 6904, 6983
13230, 6983, 6982, 6903
13231, 6904, 6905, 6984
13232, 6984, 6983, 6904
13233, 6905, 6906, 6985
13234, 6985, 6984, 6905
13235, 6906, 6907, 6986
13236, 6986, 6985, 6906
13237, 6907, 6908, 6987
13238, 6987, 6986, 6907
13239, 6908, 6909, 6988
13240, 6988, 6987, 6908
13241, 6909, 6910, 6989
13242, 6989, 6988, 6909
13243, 6910, 6911, 6990
13244, 6990, 6989, 6910
13245, 6911, 6912, 6991
13246, 6991, 6990, 6911
13247, 6912, 6913, 6992
13248, 6992, 6991, 6912
13249, 6913, 6914, 6993
13250, 6993, 6992, 6913
13251, 6914, 6915, 6994
13252, 6994, 6993, 6914
13253, 6915, 6916, 6995
13254, 6995, 6994, 6915
13255, 6916, 6917, 6996
13256, 6996, 6995, 6916
13257, 6917, 6918, 6997
13258, 6997, 6996, 6917
13259, 6918, 6919, 6998
13260, 6998, 6997, 6918
13261, 6919, 6920, 6999
13262, 6999, 6998, 6919
13263, 6920, 6921, 7000
13264, 7000, 6999, 6920
13265, 6921, 6922, 7001
13266, 7001, 7000, 6921
13267, 6922, 6923, 7002
13268, 7002, 7001, 6922
13269, 6923, 6924, 7003
13270, 7003, 7002, 6923
13271, 6924, 6925, 7004
13272, 7004, 7003, 6924
13273, 6925, 6926, 7005
13274, 7005, 7004, 6925
13275, 6926, 6927, 7006
13276, 7006, 7005, 6926
13277, 6927, 6928, 7007
13278, 7007, 7006, 6927
13279, 6928,  721,  722
13280,  722, 7007, 6928
13281,  802, 6929,  801
13282,  801,   16,  802
13283, 6929, 6930,  800
13284,  800,  801, 6929
13285, 6930, 6931,  799
13286,  799,  800, 6930
13287, 6931, 6932,  798
13288,  798,  799, 6931
13289, 6932, 6933,  797
13290,  797,  798, 6932
13291, 6933, 6934,  796
13292,  796,  797, 6933
13293, 6934, 6935,  795
13294,  795,  796, 6934
13295, 6935, 6936,  794
13296,  794,  795, 6935
13297, 6936, 6937,  793
13298,  793,  794, 6936
13299, 6937, 6938,  792
13300,  792,  793, 6937
13301, 6938, 6939,  791
13302,  791,  792, 6938
13303, 6939, 6940,  790
13304,  790,  791, 6939
13305, 6940, 6941,  789
13306,  789,  790, 6940
13307, 6941, 6942,  788
13308,  788,  789, 6941
13309, 6942, 6943,  787
13310,  787,  788, 6942
13311, 6943, 6944,  786
13312,  786,  787, 6943
13313, 6944, 6945,  785
13314,  785,  786, 6944
13315, 6945, 6946,  784
13316,  784,  785, 6945
13317, 6946, 6947,  783
13318,  783,  784, 6946
13319, 6947, 6948,  782
13320,  782,  783, 6947
13321, 6948, 6949,  781
13322,  781,  782, 6948
13323, 6949, 6950,  780
13324,  780,  781, 6949
13325, 6950, 6951,  779
13326,  779,  780, 6950
13327, 6951, 6952,  778
13328,  778,  779, 6951
13329, 6952, 6953,  777
13330,  777,  778, 6952
13331, 6953, 6954,  776
13332,  776,  777, 6953
13333, 6954, 6955,  775
13334,  775,  776, 6954
13335, 6955, 6956,  774
13336,  774,  775, 6955
13337, 6956, 6957,  773
13338,  773,  774, 6956
13339, 6957, 6958,  772
13340,  772,  773, 6957
13341, 6958, 6959,  771
13342,  771,  772, 6958
13343, 6959, 6960,  770
13344,  770,  771, 6959
13345, 6960, 6961,  769
13346,  769,  770, 6960
13347, 6961, 6962,  768
13348,  768,  769, 6961
13349, 6962, 6963,  767
13350,  767,  768, 6962
13351, 6963, 6964,  766
13352,  766,  767, 6963
13353, 6964, 6965,  765
13354,  765,  766, 6964
13355, 6965, 6966,  764
13356,  764,  765, 6965
13357, 6966, 6967,  763
13358,  763,  764, 6966
13359, 6967, 6968,  762
13360,  762,  763, 6967
13361, 6968, 6969,  761
13362,  761,  762, 6968
13363, 6969, 6970,  760
13364,  760,  761, 6969
13365, 6970, 6971,  759
13366,  759,  760, 6970
13367, 6971, 6972,  758
13368,  758,  759, 6971
13369, 6972, 6973,  757
13370,  757,  758, 6972
13371, 6973, 6974,  756
13372,  756,  757, 6973
13373, 6974, 6975,  755
13374,  755,  756, 6974
13375, 6975, 6976,  754
13376,  754,  755, 6975
13377, 6976, 6977,  753
13378,  753,  754, 6976
13379, 6977, 6978,  752
13380,  752,  753, 6977
13381, 6978, 6979,  751
13382,  751,  752, 6978
13383, 6979, 6980,  750
13384,  750,  751, 6979
13385, 6980, 6981,  749
13386,  749,  750, 6980
13387, 6981, 6982,  748
13388,  748,  749, 6981
13389, 6982, 6983,  747
13390,  747,  748, 6982
13391, 6983, 6984,  746
13392,  746,  747, 6983
13393, 6984, 6985,  745
13394,  745,  746, 6984
13395, 6985, 6986,  744
13396,  744,  745, 6985
13397, 6986, 6987,  743
13398,  743,  744, 6986
13399, 6987, 6988,  742
13400,  742,  743, 6987
13401, 6988, 6989,  741
13402,  741,  742, 6988
13403, 6989, 6990,  740
13404,  740,  741, 6989
13405, 6990, 6991,  739
13406,  739,  740, 6990
13407, 6991, 6992,  738
13408,  738,  739, 6991
13409, 6992, 6993,  737
13410,  737,  738, 6992
13411, 6993, 6994,  736
13412,  736,  737, 6993
13413, 6994, 6995,  735
13414,  735,  736, 6994
13415, 6995, 6996,  734
13416,  734,  735, 6995
13417, 6996, 6997,  733
13418,  733,  734, 6996
13419, 6997, 6998,  732
13420,  732,  733, 6997
13421, 6998, 6999,  731
13422,  731,  732, 6998
13423, 6999, 7000,  730
13424,  730,  731, 6999
13425, 7000, 7001,  729
13426,  729,  730, 7000
13427, 7001, 7002,  728
13428,  728,  729, 7001
13429, 7002, 7003,  727
13430,  727,  728, 7002
13431, 7003, 7004,  726
13432,  726,  727, 7003
13433, 7004, 7005,  725
13434,  725,  726, 7004
13435, 7005, 7006,  724
13436,  724,  725, 7005
13437, 7006, 7007,  723
13438,  723,  724, 7006
13439, 7007,  722,   15
13440,   15,  723, 7007
13441, 7070,  845,  397
13442, 7071, 7070,  396
13443, 7144, 7071,  395
13444, 7072,  393,  392
13445, 7145, 7073,  390
13446, 7146, 7074,  387
13447, 7147, 7075,  385
13448, 7076,  382, 7068
13449, 7077, 7068,  381
13450, 7283, 7244, 7017
13451, 7191, 7078,  435
13452, 7079,  434,  433
13453, 7190, 7079,  433
13454, 7189,  432,  431
13455, 7227,  829, 7014
13456, 7076, 7068,   19
13457, 7077, 7014, 7068
13458, 7245, 7150, 7080
13459, 7279, 7246, 7019
13460, 7193, 7081,  438
13461, 7246, 7078, 7019
13462, 7151, 7080,  377
13463, 7247, 7151, 7082
13464, 7272, 7020, 7230
13465, 7194, 7140,  440
13466, 7081,  439,  438
13467, 7152, 7082,  375
13468, 7230, 7152, 7153
13469, 7325, 7262, 7287
13470, 7196, 7023, 7126
13471, 7331, 7125, 7197
13472, 7198, 7125, 7027
13473, 7124,  449,  448
13474, 7123,  451,  450
13475, 7083,  454,  453
13476, 7295, 7284, 7239
13477, 7084,  358,  357
13478, 7162, 7084,  357
13479, 7163, 7085,  355
13480, 7236, 7085, 7163
13481, 7248, 7164, 7092
13482, 7320, 7266, 7289
13483, 7208, 7093,  463
13484, 7207, 7086, 7041
13485, 7086,  461,  460
13486, 7206, 7041, 7086
13487, 7305, 7236, 7038
13488, 7268, 7038, 7248
13489, 7312, 7252, 7268
13490, 7087,  373,  372
13491, 7262, 7087, 7154
13492, 7315, 7024, 7287
13493, 7325, 7299, 7262
13494, 7155, 7088,  370
13495, 7335, 7319, 7331
13496, 7334, 7315, 7328
13497, 7090, 7089,  360
13498, 7090,  360,  359
13499, 7285, 7284, 7036
13500, 7296, 7033, 7275
13501, 7304, 7275, 7256
13502, 7256, 7033, 7201
13503, 7270, 7031, 7257
13504, 7158, 7142,  365
13505, 7159, 7028, 7158
13506, 7091,  363,  362
13507, 7160, 7030, 7091
13508, 7165, 7092,  352
13509, 7266, 7165, 7094
13510, 7317, 7043, 7289
13511, 7209, 7143,  465
13512, 7093,  464,  463
13513, 7166, 7094,  350
13514, 7326, 7317, 7042
13515, 7332, 7316, 7329
13516, 7264, 7120, 7211
13517, 7232, 7119, 7212
13518, 7213,  472,  471
13519, 7118,  474,  473
13520, 7249, 7117, 7053
13521, 7095,  479,  478
13522, 7096,  481,  480
13523, 7341, 7333, 7057
13524, 7177, 7097,  330
13525, 7327, 7097, 7177
13526, 7098,  328,  327
13527, 7178, 7098, 7056
13528, 7099,  326,  325
13529, 7311, 7260, 7269
13530, 7224, 7100,  490
13531, 7101,  489,  488
13532, 7223, 7101,  488
13533, 7222, 7115, 7061
13534, 7318, 7060, 7290
13535, 7321, 7293, 7265
13536, 7321, 7265, 7290
13537, 7102,  348,  347
13538, 7168, 7044, 7102
13539, 7288, 7264, 7047
13540, 7329, 7047, 7210
13541, 7107,  345,  344
13542, 7309, 7010, 7297
13543, 7323, 7264, 7288
13544, 7176, 7104,  332
13545, 7263, 7104, 7176
13546, 7263, 7013, 7104
13547, 7324, 7263, 7286
13548, 7308, 7235, 7273
13549, 7273, 7054, 7233
13550, 7301, 7249, 7278
13551, 7173, 7105,  337
13552, 7106,  336,  335
13553, 7174, 7106,  335
13554, 7233, 7174, 7175
13555, 7171, 7109,  340
13556, 7105,  338,  337
13557, 7242, 7050, 7172
13558, 7282, 7242, 7280
13559, 7302, 7277, 7261
13560, 7302, 7237, 7277
13561, 7309, 7271, 7232
13562, 7107, 7103,  345
13563, 7108,  343,  342
13564, 7169, 7108, 7011
13565, 7109,  341,  340
13566, 7179, 7099, 7060
13567, 7181, 7062, 7180
13568, 7303, 7250, 7276
13569, 7226, 7111,  493
13570, 7100,  491,  490
13571, 7110,  323,  322
13572, 7182, 7064, 7110
13573, 7313, 7111, 7067
13574, 7111,  812,  493
13575, 7112,  321,  320
13576, 7113,  320,  319
13577, 7114,  810,  811
13578, 7115,  486,  485
13579, 7330, 7115, 7221
13580, 7333, 7314, 7327
13581, 7336, 7318, 7330
13582, 7116,  484,  483
13583, 7220, 7057, 7116
13584, 7219, 7096, 7058
13585, 7218, 7095, 7012
13586, 7117,  476,  475
13587, 7214, 7118,  473
13588, 7119,  471,  470
13589, 7120,  469,  468
13590, 7121,  459,  458
13591, 7205, 7039, 7121
13592, 7295, 7034, 7274
13593, 7305, 7274, 7236
13594, 7122,  456,  455
13595, 7203, 7122,  455
13596, 7202, 7083,  453
13597, 7200, 7123,  450
13598, 7199, 7124,  448
13599, 7125,  446,  445
13600, 7126,  444,  443
13601, 7188, 7069,  430
13602,  829, 7015,   18
13603,  415,  813,  814
13604, 7127,  415,  814
13605, 7135, 7128,  418
13606, 7134, 7129,  420
13607, 7133, 7130,  423
13608, 7187, 7131,  825
13609, 7139, 7132,  428
13610, 7069,   18, 7015
13611, 7131,  426,  425
13612, 7133,  822, 7130
13613, 7134,  819, 7129
13614, 7135,  817, 7128
13615, 7076,   19,  830
13616, 7075,  832,  833
13617, 7136,  388, 7074
13618, 7137,  391, 7073
13619, 7144, 7138,  841
13620, 7139,  827, 7132
13621, 7306, 7229, 7228
13622, 7228, 7227, 7014
13623, 7283, 7281, 7244
13624, 7300, 7246, 7279
13625, 7307, 7009, 7299
13626, 7140,  441,  440
13627, 7331, 7027, 7125
13628, 7322, 7267, 7291
13629, 7310, 7258, 7270
13630, 7291, 7267, 7027
13631, 7328, 7088, 7155
13632, 7141,  368,  367
13633, 7338, 7026, 7319
13634, 7142,  366,  365
13635, 7289, 7266, 7042
13636, 7337, 7317, 7326
13637, 7143,  466,  465
13638, 7278, 7249, 7053
13639, 7269, 7065, 7254
13640, 7276, 7250, 7066
13641, 7071,  843, 7070
13642, 7144,  394, 7138
13643, 7138,  394,  393
13644, 7137, 7073,  838
13645, 7145,  390,  389
13646, 7136, 7074,  835
13647, 7146,  386, 7075
13648, 7147,  385,  384
13649, 7148,  383, 7076
13650, 7068,  382,  381
13651, 7149,  380,  379
13652, 7150,  379,  378
13653, 7151,  377,  376
13654, 7152,  375,  374
13655, 7153,  373, 7087
13656, 7154,  371, 7088
13657, 7156, 7155,  369
13658, 7156,  369,  368
13659, 7157,  367,  366
13660, 7158,  365,  364
13661, 7159, 7158,  364
13662, 7160, 7091,  362
13663, 7090, 7032, 7089
13664, 7161,  358, 7084
13665, 7162,  356, 7085
13666, 7164, 7163,  354
13667, 7164,  354,  353
13668, 7165,  352,  351
13669, 7166,  350,  349
13670, 7167,  348, 7102
13671, 7168,  346, 7103
13672, 7107, 7046, 7103
13673, 7169,  344,  343
13674, 7170,  342,  341
13675, 7171,  340,  339
13676, 7172,  339,  338
13677, 7173,  337,  336
13678, 7174,  335,  334
13679, 7175,  333, 7104
13680, 7176,  331, 7097
13681, 7178, 7177,  329
13682, 7178,  329,  328
13683, 7179,  327,  326
13684, 7180,  325,  324
13685, 7181, 7180,  324
13686, 7250, 7112, 7066
13687, 7183,  809,  810
13688,  319,    7,  809
13689, 7183, 7114, 7066
13690,  812,   10,  493
13691,  415,    9,  813
13692, 7184,  417,  416
13693, 7135,  418,  417
13694, 7134,  420,  419
13695, 7185,  422,  421
13696, 7133,  423,  422
13697, 7186,  425,  424
13698, 7187,  426, 7131
13699, 7139,  428,  427
13700, 7188,  430,  429
13701, 7189,  431, 7069
13702, 7190,  433,  432
13703, 7191,  435,  434
13704, 7192,  437,  436
13705, 7193,  438,  437
13706, 7194,  440,  439
13707, 7195,  442,  441
13708, 7342, 7195, 7024
13709, 7197,  444, 7126
13710, 7198,  446, 7125
13711, 7199,  448,  447
13712, 7200,  450,  449
13713, 7201,  452,  451
13714, 7202,  452, 7201
13715, 7203,  454, 7083
13716, 7204,  457,  456
13717, 7251, 7204, 7035
13718, 7252, 7121, 7039
13719, 7207,  462,  461
13720, 7208,  463,  462
13721, 7209,  465,  464
13722, 7210,  467,  466
13723, 7211,  467, 7210
13724, 7212,  469, 7120
13725, 7213,  471, 7119
13726, 7214,  473,  472
13727, 7215,  475,  474
13728, 7216,  477,  476
13729, 7217,  478,  477
13730, 7218,  480,  479
13731, 7219,  482,  481
13732, 7341, 7219, 7058
13733, 7221,  484, 7116
13734, 7222,  486, 7115
13735, 7223,  488,  487
13736, 7224,  490,  489
13737, 7225,  492,  491
13738, 7226,  492, 7225
13739,  814,  813,   17
13740, 7127,  814,  815
13741, 7184, 7127,  815
13742, 7128,  817,  818
13743, 7129,  819,  820
13744, 7185,  820,  821
13745, 7130,  822,  823
13746, 7186,  823,  824
13747, 7187,  825,  826
13748, 7132,  827,  828
13749, 7188,  828,   18
13750,  829,   19, 7014
13751, 7148,  830,  831
13752, 7147,  831,  832
13753, 7146,  833,  834
13754, 7136,  835,  836
13755, 7145,  836,  837
13756, 7137,  838,  839
13757, 7072,  839,  840
13758, 7144,  841,  842
13759, 7070,  843,  844
13760,  845,  844,   20
13761,  845,    8,  397
13762, 7077,  381,  380
13763, 7068, 7014,   19
13764, 7189, 7069, 7015
13765, 7069,  431,  430
13766, 7070,  844,  845
13767, 7070,  397,  396
13768, 7071,  396,  395
13769, 7071,  842,  843
13770, 7138, 7072,  840
13771, 7137, 7072,  392
13772, 7073,  391,  390
13773, 7073,  837,  838
13774, 7074,  388,  387
13775, 7074,  834,  835
13776, 7146, 7075,  833
13777, 7075,  386,  385
13778, 7148, 7076,  830
13779, 7076,  383,  382
13780, 7149, 7077,  380
13781, 7228, 7077, 7149
13782, 7246, 7192, 7078
13783, 7078,  436,  435
13784, 7244, 7079, 7017
13785, 7244, 7191, 7079
13786, 7080,  378,  377
13787, 7245, 7080, 7018
13788, 7231, 7081, 7193
13789, 7194, 7081, 7008
13790, 7082,  376,  375
13791, 7247, 7082, 7020
13792, 7238, 7083, 7202
13793, 7203, 7083, 7036
13794, 7239, 7084, 7162
13795, 7161, 7084, 7037
13796, 7162, 7085, 7034
13797, 7085,  356,  355
13798, 7206,  460,  459
13799, 7320, 7041, 7292
13800, 7154, 7088, 7025
13801, 7230, 7153, 7009
13802, 7262, 7154, 7025
13803, 7088,  371,  370
13804, 7259, 7160, 7089
13805, 7089,  361,  360
13806, 7161, 7090,  359
13807, 7240, 7090, 7161
13808, 7160,  362,  361
13809, 7258, 7159, 7091
13810, 7092,  353,  352
13811, 7248, 7092, 7040
13812, 7340, 7043, 7317
13813, 7209, 7093, 7045
13814, 7094,  351,  350
13815, 7266, 7094, 7042
13816, 7217, 7095,  478
13817, 7235, 7095, 7217
13818, 7218, 7096,  480
13819, 7324, 7012, 7298
13820, 7263, 7176, 7059
13821, 7097,  331,  330
13822, 7179, 7098,  327
13823, 7339, 7060, 7318
13824, 7180, 7099,  325
13825, 7321, 7062, 7293
13826, 7253, 7100, 7065
13827, 7253, 7225, 7100
13828, 7254, 7101, 7063
13829, 7254, 7224, 7101
13830, 7343, 7103, 7046
13831, 7326, 7166, 7167
13832, 7343, 7046, 7316
13833, 7103,  346,  345
13834, 7233, 7175, 7013
13835, 7104,  333,  332
13836, 7242, 7105, 7052
13837, 7242, 7172, 7105
13838, 7255, 7106, 7054
13839, 7255, 7173, 7106
13840, 7169, 7107,  344
13841, 7323, 7011, 7297
13842, 7170, 7108,  342
13843, 7234, 7108, 7170
13844, 7237, 7109, 7171
13845, 7170, 7109, 7048
13846, 7182,  322,  321
13847, 7260, 7181, 7110
13848, 7313, 7276, 7066
13849, 7111,  811,  812
13850, 7113, 7112,  320
13851, 7250, 7182, 7112
13852, 7113, 7066, 7112
13853, 7113,  319,  809
13854, 7183, 7066, 7113
13855, 7114,  811, 7111
13856, 7221, 7116, 7057
13857, 7265, 7222, 7061
13858, 7220,  483,  482
13859, 7330, 7318, 7061
13860, 7215, 7117,  475
13861, 7249, 7216, 7117
13862, 7243, 7118, 7051
13863, 7243, 7215, 7118
13864, 7212, 7120, 7010
13865, 7213, 7119, 7049
13866, 7211, 7210, 7047
13867, 7232, 7212, 7010
13868, 7205,  458,  457
13869, 7252, 7206, 7121
13870, 7241, 7122, 7203
13871, 7204, 7122, 7035
13872, 7256, 7123, 7031
13873, 7256, 7201, 7123
13874, 7257, 7124, 7029
13875, 7257, 7200, 7124
13876, 7197, 7126, 7023
13877, 7267, 7198, 7027
13878, 7196,  443,  442
13879, 7331, 7319, 7027
13880, 7184,  815,  816
13881, 7127,  416,  415
13882, 7134, 7128,  818
13883, 7128,  419,  418
13884, 7185, 7129,  820
13885, 7129,  421,  420
13886, 7186, 7130,  823
13887, 7130,  424,  423
13888, 7186, 7131,  425
13889, 7131,  824,  825
13890, 7188, 7132,  828
13891, 7132,  429,  428
13892, 7185, 7133,  422
13893, 7133,  821,  822
13894, 7134,  419, 7128
13895, 7134,  818,  819
13896, 7184, 7135,  417
13897, 7135,  816,  817
13898, 7145, 7136,  836
13899, 7136,  389,  388
13900, 7137,  839, 7072
13901, 7137,  392,  391
13902, 7138,  393, 7072
13903, 7138,  840,  841
13904, 7187, 7139,  427
13905, 7139,  826,  827
13906, 7325, 7008, 7299
13907, 7195, 7140, 7024
13908, 7156, 7141, 7022
13909, 7157, 7141,  367
13910, 7322, 7028, 7294
13911, 7157, 7142, 7026
13912, 7329, 7316, 7047
13913, 7329, 7210, 7143
13914, 7144,  842, 7071
13915, 7144,  395,  394
13916, 7145,  837, 7073
13917, 7145,  389, 7136
13918, 7146,  834, 7074
13919, 7146,  387,  386
13920, 7147,  832, 7075
13921, 7148, 7147,  384
13922, 7148,  831, 7147
13923, 7148,  384,  383
13924, 7150, 7149,  379
13925, 7228, 7149, 7016
13926, 7150, 7016, 7149
13927, 7150,  378, 7080
13928, 7151,  376, 7082
13929, 7151, 7018, 7080
13930, 7153, 7152,  374
13931, 7152, 7020, 7082
13932, 7153,  374,  373
13933, 7153, 7087, 7009
13934, 7154, 7087,  372
13935, 7154,  372,  371
13936, 7155,  370,  369
13937, 7328, 7315, 7025
13938, 7156,  368, 7141
13939, 7156, 7022, 7155
13940, 7157,  366, 7142
13941, 7338, 7157, 7026
13942, 7159,  364,  363
13943, 7158, 7028, 7142
13944, 7159,  363, 7091
13945, 7258, 7091, 7030
13946, 7160,  361, 7089
13947, 7259, 7089, 7032
13948, 7161,  359,  358
13949, 7240, 7161, 7037
13950, 7162,  357,  356
13951, 7239, 7162, 7034
13952, 7163,  355,  354
13953, 7236, 7163, 7038
13954, 7164,  353, 7092
13955, 7164, 7038, 7163
13956, 7165,  351, 7094
13957, 7165, 7040, 7092
13958, 7167, 7166,  349
13959, 7166, 7042, 7094
13960, 7167,  349,  348
13961, 7167, 7102, 7044
13962, 7168, 7102,  347
13963, 7168,  347,  346
13964, 7169,  343, 7108
13965, 7323, 7169, 7011
13966, 7170,  341, 7109
13967, 7234, 7170, 7048
13968, 7172, 7171,  339
13969, 7237, 7171, 7050
13970, 7172, 7050, 7171
13971, 7172,  338, 7105
13972, 7173,  336, 7106
13973, 7173, 7052, 7105
13974, 7175, 7174,  334
13975, 7174, 7054, 7106
13976, 7175,  334,  333
13977, 7175, 7104, 7013
13978, 7176,  332,  331
13979, 7176, 7097, 7059
13980, 7177,  330,  329
13981, 7327, 7314, 7059
13982, 7178,  328, 7098
13983, 7178, 7056, 7177
13984, 7179,  326, 7099
13985, 7339, 7179, 7060
13986, 7181,  324,  323
13987, 7180, 7062, 7099
13988, 7181,  323, 7110
13989, 7260, 7110, 7064
13990, 7182, 7110,  322
13991, 7182,  321, 7112
13992, 7183, 7113,  809
13993, 7183,  810, 7114
13994, 7184,  816, 7135
13995, 7184,  416, 7127
13996, 7185,  821, 7133
13997, 7185,  421, 7129
13998, 7186,  824, 7131
13999, 7186,  424, 7130
14000, 7187,  826, 7139
14001, 7187,  427,  426
14002, 7188,   18, 7069
14003, 7188,  429, 7132
14004, 7229, 7189, 7015
14005, 7229, 7190, 7189
14006, 7190,  432, 7189
14007, 7190, 7017, 7079
14008, 7191, 7019, 7078
14009, 7191,  434, 7079
14010, 7193, 7192, 7021
14011, 7192,  436, 7078
14012, 7193,  437, 7192
14013, 7231, 7193, 7021
14014, 7194,  439, 7081
14015, 7325, 7194, 7008
14016, 7195,  441, 7140
14017, 7342, 7024, 7315
14018, 7196, 7126,  443
14019, 7196,  442, 7195
14020, 7197, 7125,  445
14021, 7197,  445,  444
14022, 7267, 7199, 7198
14023, 7198,  447,  446
14024, 7199,  447, 7198
14025, 7199, 7029, 7124
14026, 7200,  449, 7124
14027, 7200, 7031, 7123
14028, 7201,  451, 7123
14029, 7202, 7201, 7033
14030, 7202,  453,  452
14031, 7238, 7202, 7033
14032, 7203,  455,  454
14033, 7241, 7203, 7036
14034, 7204,  456, 7122
14035, 7251, 7205, 7204
14036, 7205, 7121,  458
14037, 7205,  457, 7204
14038, 7206, 7086,  460
14039, 7206,  459, 7121
14040, 7208, 7207, 7043
14041, 7207,  461, 7086
14042, 7208,  462, 7207
14043, 7340, 7208, 7043
14044, 7209,  464, 7093
14045, 7209, 7045, 7143
14046, 7210,  466, 7143
14047, 7264, 7211, 7047
14048, 7211, 7120,  468
14049, 7211,  468,  467
14050, 7212, 7119,  470
14051, 7212,  470,  469
14052, 7261, 7213, 7049
14053, 7261, 7214, 7213
14054, 7214,  472, 7213
14055, 7214, 7051, 7118
14056, 7215, 7053, 7117
14057, 7215,  474, 7118
14058, 7217, 7216, 7055
14059, 7216,  476, 7117
14060, 7217,  477, 7216
14061, 7235, 7217, 7055
14062, 7218,  479, 7095
14063, 7324, 7218, 7012
14064, 7219,  481, 7096
14065, 7341, 7058, 7314
14066, 7220, 7116,  483
14067, 7220,  482, 7219
14068, 7221, 7115,  485
14069, 7221,  485,  484
14070, 7265, 7223, 7222
14071, 7222,  487,  486
14072, 7223,  487, 7222
14073, 7223, 7063, 7101
14074, 7224,  489, 7101
14075, 7224, 7065, 7100
14076, 7225,  491, 7100
14077, 7226, 7225, 7067
14078, 7226,  493,  492
14079, 7226, 7067, 7111
14080, 7229, 7227, 7228
14081, 7227, 7015,  829
14082, 7228, 7014, 7077
14083, 7306, 7016, 7283
14084, 7229, 7017, 7190
14085, 7229, 7015, 7227
14086, 7307, 7231, 7272
14087, 7230, 7020, 7152
14088, 7231, 7008, 7081
14089, 7272, 7231, 7021
14090, 7309, 7234, 7271
14091, 7232, 7049, 7119
14092, 7233, 7054, 7174
14093, 7308, 7013, 7298
14094, 7234, 7011, 7108
14095, 7271, 7234, 7048
14096, 7235, 7012, 7095
14097, 7273, 7235, 7055
14098, 7305, 7251, 7274
14099, 7236, 7034, 7085
14100, 7237, 7048, 7109
14101, 7277, 7237, 7050
14102, 7296, 7240, 7285
14103, 7238, 7036, 7083
14104, 7295, 7241, 7284
14105, 7239, 7037, 7084
14106, 7240, 7032, 7090
14107, 7285, 7240, 7037
14108, 7241, 7035, 7122
14109, 7284, 7241, 7036
14110, 7280, 7052, 7278
14111, 7282, 7280, 7243
14112, 7243, 7053, 7215
14113, 7282, 7051, 7277
14114, 7283, 7245, 7281
14115, 7244, 7019, 7191
14116, 7245, 7016, 7150
14117, 7281, 7018, 7279
14118, 7300, 7279, 7247
14119, 7246, 7021, 7192
14120, 7247, 7018, 7151
14121, 7300, 7247, 7020
14122, 7312, 7040, 7292
14123, 7248, 7038, 7164
14124, 7301, 7278, 7255
14125, 7249, 7055, 7216
14126, 7303, 7276, 7253
14127, 7250, 7064, 7182
14128, 7251, 7039, 7205
14129, 7274, 7251, 7035
14130, 7268, 7252, 7039
14131, 7252, 7041, 7206
14132, 7253, 7067, 7225
14133, 7303, 7253, 7065
14134, 7311, 7063, 7293
14135, 7254, 7065, 7224
14136, 7255, 7052, 7173
14137, 7301, 7255, 7054
14138, 7304, 7031, 7270
14139, 7304, 7259, 7275
14140, 7310, 7029, 7294
14141, 7257, 7031, 7200
14142, 7270, 7258, 7030
14143, 7258, 7028, 7159
14144, 7259, 7030, 7160
14145, 7275, 7259, 7032
14146, 7269, 7260, 7064
14147, 7260, 7062, 7181
14148, 7261, 7051, 7214
14149, 7302, 7261, 7049
14150, 7262, 7009, 7087
14151, 7287, 7262, 7025
14152, 7286, 7263, 7059
14153, 7324, 7298, 7263
14154, 7323, 7297, 7264
14155, 7264, 7010, 7120
14156, 7265, 7063, 7223
14157, 7290, 7265, 7061
14158, 7320, 7292, 7266
14159, 7266, 7040, 7165
14160, 7322, 7294, 7267
14161, 7267, 7029, 7199
14162, 7305, 7268, 7039
14163, 7312, 7292, 7041
14164, 7303, 7269, 7064
14165, 7311, 7293, 7062
14166, 7304, 7270, 7030
14167, 7310, 7294, 7028
14168, 7302, 7271, 7048
14169, 7271, 7049, 7232
14170, 7300, 7272, 7021
14171, 7307, 7272, 7230
14172, 7301, 7273, 7055
14173, 7308, 7273, 7233
14174, 7295, 7274, 7035
14175, 7274, 7034, 7236
14176, 7296, 7275, 7032
14177, 7275, 7033, 7256
14178, 7313, 7066, 7114
14179, 7276, 7067, 7253
14180, 7282, 7277, 7050
14181, 7277, 7051, 7261
14182, 7280, 7278, 7053
14183, 7278, 7052, 7255
14184, 7281, 7279, 7019
14185, 7279, 7018, 7247
14186, 7280, 7053, 7243
14187, 7280, 7242, 7052
14188, 7281, 7019, 7244
14189, 7281, 7245, 7018
14190, 7282, 7050, 7242
14191, 7282, 7243, 7051
14192, 7306, 7283, 7017
14193, 7283, 7016, 7245
14194, 7285, 7036, 7238
14195, 7284, 7037, 7239
14196, 7296, 7285, 7238
14197, 7285, 7037, 7284
14198, 7314, 7286, 7059
14199, 7324, 7096, 7218
14200, 7315, 7287, 7025
14201, 7325, 7140, 7194
14202, 7316, 7288, 7047
14203, 7323, 7107, 7169
14204, 7317, 7289, 7042
14205, 7320, 7207, 7041
14206, 7318, 7290, 7061
14207, 7321, 7099, 7062
14208, 7319, 7291, 7027
14209, 7322, 7142, 7028
14210, 7312, 7041, 7252
14211, 7292, 7040, 7266
14212, 7311, 7062, 7260
14213, 7293, 7063, 7265
14214, 7310, 7028, 7258
14215, 7294, 7029, 7267
14216, 7295, 7035, 7241
14217, 7295, 7239, 7034
14218, 7296, 7032, 7240
14219, 7296, 7238, 7033
14220, 7309, 7297, 7011
14221, 7297, 7010, 7264
14222, 7308, 7298, 7012
14223, 7298, 7013, 7263
14224, 7307, 7299, 7008
14225, 7299, 7009, 7262
14226, 7300, 7020, 7272
14227, 7300, 7021, 7246
14228, 7301, 7054, 7273
14229, 7301, 7055, 7249
14230, 7302, 7049, 7271
14231, 7302, 7048, 7237
14232, 7303, 7065, 7269
14233, 7303, 7064, 7250
14234, 7304, 7256, 7031
14235, 7304, 7030, 7259
14236, 7305, 7038, 7268
14237, 7305, 7039, 7251
14238, 7306, 7017, 7229
14239, 7306, 7228, 7016
14240, 7307, 7008, 7231
14241, 7307, 7230, 7009
14242, 7308, 7012, 7235
14243, 7308, 7233, 7013
14244, 7309, 7232, 7010
14245, 7309, 7011, 7234
14246, 7310, 7270, 7257
14247, 7310, 7257, 7029
14248, 7311, 7269, 7254
14249, 7311, 7254, 7063
14250, 7312, 7268, 7248
14251, 7312, 7248, 7040
14252, 7313, 7114, 7111
14253, 7313, 7067, 7276
14254, 7314, 7058, 7286
14255, 7327, 7059, 7097
14256, 7328, 7025, 7088
14257, 7342, 7334, 7023
14258, 7343, 7332, 7044
14259, 7316, 7046, 7288
14260, 7326, 7042, 7166
14261, 7340, 7337, 7045
14262, 7330, 7061, 7115
14263, 7339, 7336, 7056
14264, 7338, 7335, 7022
14265, 7319, 7026, 7291
14266, 7320, 7289, 7043
14267, 7320, 7043, 7207
14268, 7321, 7290, 7060
14269, 7321, 7060, 7099
14270, 7322, 7291, 7026
14271, 7322, 7026, 7142
14272, 7323, 7288, 7046
14273, 7323, 7046, 7107
14274, 7324, 7286, 7058
14275, 7324, 7058, 7096
14276, 7325, 7287, 7024
14277, 7325, 7024, 7140
14278, 7326, 7167, 7044
14279, 7337, 7326, 7044
14280, 7327, 7177, 7056
14281, 7333, 7327, 7056
14282, 7328, 7155, 7022
14283, 7334, 7328, 7022
14284, 7329, 7143, 7045
14285, 7332, 7329, 7045
14286, 7330, 7221, 7057
14287, 7336, 7330, 7057
14288, 7331, 7197, 7023
14289, 7335, 7331, 7023
14290, 7337, 7332, 7045
14291, 7343, 7044, 7168
14292, 7336, 7333, 7056
14293, 7341, 7057, 7220
14294, 7335, 7334, 7022
14295, 7342, 7023, 7196
14296, 7335, 7023, 7334
14297, 7338, 7022, 7141
14298, 7336, 7057, 7333
14299, 7339, 7056, 7098
14300, 7337, 7044, 7332
14301, 7340, 7045, 7093
14302, 7338, 7141, 7157
14303, 7338, 7319, 7335
14304, 7339, 7098, 7179
14305, 7339, 7318, 7336
14306, 7340, 7093, 7208
14307, 7340, 7317, 7337
14308, 7341, 7220, 7219
14309, 7341, 7314, 7333
14310, 7342, 7196, 7195
14311, 7342, 7315, 7334
14312, 7343, 7168, 7103
14313, 7343, 7316, 7332
*Nset, nset=_G3, internal, generate
    1,  7343,     1
*Elset, elset=_G3, internal, generate
     1,  14313,      1
*Nset, nset=Support_Left
 14,
*Nset, nset=Support_Right
 2,
*Nset, nset=Load_Nodes
   7,  10, 809, 810, 811, 812
*Nset, nset=CMOD1
 17,
*Nset, nset=CMOD2
 20,
** Section: BeamSec
*Solid Section, elset=_G3, material=Concrete
50.,
*End Part
**  
**
** ASSEMBLY
**
*Assembly, name=Assembly
**  
*Instance, name=BeamInst, part=Beam2D
*End Instance
**  
*Nset, nset=CMOD1, instance=BeamInst
 17,
*Nset, nset=CMOD2, instance=BeamInst
 20,
*Nset, nset=Load_Nodes, instance=BeamInst
   7,  10, 809, 810, 811, 812
*Nset, nset=Support_Left, instance=BeamInst
 14,
*Nset, nset=Support_Right, instance=BeamInst
 2,
*End Assembly
** 
** MATERIALS
** 
*Material, name=Concrete
*Depvar
      2,
*User Material, constants=5
37000.,  0.2,  3.5, 0.09,  10.
** ----------------------------------------------------------------
** 
** STEP: Loading
** 
*Step, name=Loading, nlgeom=NO, inc=20000
*Static, direct
0.0005, 1.0
** 
** BOUNDARY CONDITIONS
** 
** Name: BC_Load Type: Displacement/Rotation
*Boundary
Load_Nodes, 2, 2, -0.1
** Name: BC_SupL Type: Displacement/Rotation
*Boundary
Support_Left, 1, 1
Support_Left, 2, 2
** Name: BC_SupR Type: Displacement/Rotation
*Boundary
Support_Right, 2, 2
** 
** OUTPUT REQUESTS
** 
*Restart, write, frequency=0
** 
** FIELD OUTPUT: F-Output-1
** 
*Output, field, variable=PRESELECT
** 
** FIELD OUTPUT: F-SDV
** 
*Output, field, frequency=100
*Element Output, directions=YES
SDV, 
** 
** HISTORY OUTPUT: H-CMOD1
** 
*Output, history
*Node Output, nset=CMOD1
U1, 
** 
** HISTORY OUTPUT: H-CMOD2
** 
*Node Output, nset=CMOD2
U1, 
** 
** HISTORY OUTPUT: H-Load
** 
*Node Output, nset=Load_Nodes
RF2, U2
** 
** HISTORY OUTPUT: H-Output-1
** 
*Output, history, variable=PRESELECT
*End Step
