*Heading
 Gregoire 3PB CDM UMAT
** Job name: Gregoire_3PB Model name: Gregoire_3PB
** Generated by: Abaqus/CAE 2024
*Preprint, echo=NO, model=NO, history=NO, contact=NO
**
** PARTS
**
*Part, name=Beam2D
*Node
      1,         300.,         100.
      2,         300.,           0.
      3,         350.,           0.
      4,         350.,         100.
      5,         200.,         100.
      6,         200.,           0.
      7,      178.125,         100.
      8,      178.125,           0.
      9,      171.875,           0.
     10,      171.875,         100.
     11,         150.,         100.
     12,         150.,           0.
     13,          50.,         100.
     14,          50.,           0.
     15,           0.,         100.
     16,           0.,           0.
     17,       173.75,           0.
     18,       173.75,          20.
     19,       176.25,          20.
     20,       176.25,           0.
     21,         300.,         97.5
     22,         300.,          95.
     23,         300.,         92.5
     24,         300.,          90.
     25,         300.,         87.5
     26,         300.,          85.
     27,         300.,         82.5
     28,         300.,          80.
     29,         300.,         77.5
     30,         300.,          75.
     31,         300.,         72.5
     32,         300.,          70.
     33,         300.,         67.5
     34,         300.,          65.
     35,         300.,         62.5
     36,         300.,          60.
     37,         300.,         57.5
     38,         300.,          55.
     39,         300.,         52.5
     40,         300.,          50.
     41,         300.,         47.5
     42,         300.,          45.
     43,         300.,         42.5
     44,         300.,          40.
     45,         300.,         37.5
     46,         300.,          35.
     47,         300.,         32.5
     48,         300.,          30.
     49,         300.,         27.5
     50,         300.,          25.
     51,         300.,         22.5
     52,         300.,          20.
     53,         300.,         17.5
     54,         300.,          15.
     55,         300.,         12.5
     56,         300.,          10.
     57,         300.,          7.5
     58,         300.,           5.
     59,         300.,          2.5
     60,        312.5,           0.
     61,         325.,           0.
     62,        337.5,           0.
     63,         350.,          2.5
     64,         350.,           5.
     65,         350.,          7.5
     66,         350.,          10.
     67,         350.,         12.5
     68,         350.,          15.
     69,         350.,         17.5
     70,         350.,          20.
     71,         350.,         22.5
     72,         350.,          25.
     73,         350.,         27.5
     74,         350.,          30.
     75,         350.,         32.5
     76,         350.,          35.
     77,         350.,         37.5
     78,         350.,          40.
     79,         350.,         42.5
     80,         350.,          45.
     81,         350.,         47.5
     82,         350.,          50.
     83,         350.,         52.5
     84,         350.,          55.
     85,         350.,         57.5
     86,         350.,          60.
     87,         350.,         62.5
     88,         350.,          65.
     89,         350.,         67.5
     90,         350.,          70.
     91,         350.,         72.5
     92,         350.,          75.
     93,         350.,         77.5
     94,         350.,          80.
     95,         350.,         82.5
     96,         350.,          85.
     97,         350.,         87.5
     98,         350.,          90.
     99,         350.,         92.5
    100,         350.,          95.
    101,         350.,         97.5
    102,        337.5,         100.
    103,         325.,         100.
    104,        312.5,         100.
    105,         200.,         97.5
    106,         200.,          95.
    107,         200.,         92.5
    108,         200.,          90.
    109,         200.,         87.5
    110,         200.,          85.
    111,         200.,         82.5
    112,         200.,          80.
    113,         200.,         77.5
    114,         200.,          75.
    115,         200.,         72.5
    116,         200.,          70.
    117,         200.,         67.5
    118,         200.,          65.
    119,         200.,         62.5
    120,         200.,          60.
    121,         200.,         57.5
    122,         200.,          55.
    123,         200.,         52.5
    124,         200.,          50.
    125,         200.,         47.5
    126,         200.,          45.
    127,         200.,         42.5
    128,         200.,          40.
    129,         200.,         37.5
    130,         200.,          35.
    131,         200.,         32.5
    132,         200.,          30.
    133,         200.,         27.5
    134,         200.,          25.
    135,         200.,         22.5
    136,         200.,          20.
    137,         200.,         17.5
    138,         200.,          15.
    139,         200.,         12.5
    140,         200.,          10.
    141,         200.,          7.5
    142,         200.,           5.
    143,         200.,          2.5
    144,        212.5,           0.
    145,         225.,           0.
    146,        237.5,           0.
    147,         250.,           0.
    148,        262.5,           0.
    149,         275.,           0.
    150,        287.5,           0.
    151,        287.5,         100.
    152,         275.,         100.
    153,        262.5,         100.
    154,         250.,         100.
    155,        237.5,         100.
    156,         225.,         100.
    157,        212.5,         100.
    158,   197.569443,         100.
    159,   195.138885,         100.
    160,   192.708328,         100.
    161,   190.277771,         100.
    162,   187.847229,         100.
    163,   185.416672,         100.
    164,   182.986115,         100.
    165,   180.555557,         100.
    166,      178.125,         97.5
    167,      178.125,          95.
    168,      178.125,         92.5
    169,      178.125,          90.
    170,      178.125,         87.5
    171,      178.125,          85.
    172,      178.125,         82.5
    173,      178.125,          80.
    174,      178.125,         77.5
    175,      178.125,          75.
    176,      178.125,         72.5
    177,      178.125,          70.
    178,      178.125,         67.5
    179,      178.125,          65.
    180,      178.125,         62.5
    181,      178.125,          60.
    182,      178.125,         57.5
    183,      178.125,          55.
    184,      178.125,         52.5
    185,      178.125,          50.
    186,      178.125,         47.5
    187,      178.125,          45.
    188,      178.125,         42.5
    189,      178.125,          40.
    190,      178.125,         37.5
    191,      178.125,          35.
    192,      178.125,         32.5
    193,      178.125,          30.
    194,      178.125,         27.5
    195,      178.125,          25.
    196,      178.125,         22.5
    197,      178.125,          20.
    198,      178.125,         17.5
    199,      178.125,          15.
    200,      178.125,         12.5
    201,      178.125,          10.
    202,      178.125,          7.5
    203,      178.125,           5.
    204,      178.125,          2.5
    205,   180.555557,           0.
    206,   182.986115,           0.
    207,   185.416672,           0.
    208,   187.847229,           0.
    209,   190.277771,           0.
    210,   192.708328,           0.
    211,   195.138885,           0.
    212,   197.569443,           0.
    213,      171.875,          2.5
    214,      171.875,           5.
    215,      171.875,          7.5
    216,      171.875,          10.
    217,      171.875,         12.5
    218,      171.875,          15.
    219,      171.875,         17.5
    220,      171.875,          20.
    221,      171.875,         22.5
    222,      171.875,          25.
    223,      171.875,         27.5
    224,      171.875,          30.
    225,      171.875,         32.5
    226,      171.875,          35.
    227,      171.875,         37.5
    228,      171.875,          40.
    229,      171.875,         42.5
    230,      171.875,          45.
    231,      171.875,         47.5
    232,      171.875,          50.
    233,      171.875,         52.5
    234,      171.875,          55.
    235,      171.875,         57.5
    236,      171.875,          60.
    237,      171.875,         62.5
    238,      171.875,          65.
    239,      171.875,         67.5
    240,      171.875,          70.
    241,      171.875,         72.5
    242,      171.875,          75.
    243,      171.875,         77.5
    244,      171.875,          80.
    245,      171.875,         82.5
    246,      171.875,          85.
    247,      171.875,         87.5
    248,      171.875,          90.
    249,      171.875,         92.5
    250,      171.875,          95.
    251,      171.875,         97.5
    252,   169.444443,         100.
    253,   167.013885,         100.
    254,   164.583328,         100.
    255,   162.152771,         100.
    256,   159.722229,         100.
    257,   157.291672,         100.
    258,   154.861115,         100.
    259,   152.430557,         100.
    260,         150.,         97.5
    261,         150.,          95.
    262,         150.,         92.5
    263,         150.,          90.
    264,         150.,         87.5
    265,         150.,          85.
    266,         150.,         82.5
    267,         150.,          80.
    268,         150.,         77.5
    269,         150.,          75.
    270,         150.,         72.5
    271,         150.,          70.
    272,         150.,         67.5
    273,         150.,          65.
    274,         150.,         62.5
    275,         150.,          60.
    276,         150.,         57.5
    277,         150.,          55.
    278,         150.,         52.5
    279,         150.,          50.
    280,         150.,         47.5
    281,         150.,          45.
    282,         150.,         42.5
    283,         150.,          40.
    284,         150.,         37.5
    285,         150.,          35.
    286,         150.,         32.5
    287,         150.,          30.
    288,         150.,         27.5
    289,         150.,          25.
    290,         150.,         22.5
    291,         150.,          20.
    292,         150.,         17.5
    293,         150.,          15.
    294,         150.,         12.5
    295,         150.,          10.
    296,         150.,          7.5
    297,         150.,           5.
    298,         150.,          2.5
    299,   152.430557,           0.
    300,   154.861115,           0.
    301,   157.291672,           0.
    302,   159.722229,           0.
    303,   162.152771,           0.
    304,   164.583328,           0.
    305,   167.013885,           0.
    306,   169.444443,           0.
    307,          50.,         97.5
    308,          50.,          95.
    309,          50.,         92.5
    310,          50.,          90.
    311,          50.,         87.5
    312,          50.,          85.
    313,          50.,         82.5
    314,          50.,          80.
    315,          50.,         77.5
    316,          50.,          75.
    317,          50.,         72.5
    318,          50.,          70.
    319,          50.,         67.5
    320,          50.,          65.
    321,          50.,         62.5
    322,          50.,          60.
    323,          50.,         57.5
    324,          50.,          55.
    325,          50.,         52.5
    326,          50.,          50.
    327,          50.,         47.5
    328,          50.,          45.
    329,          50.,         42.5
    330,          50.,          40.
    331,          50.,         37.5
    332,          50.,          35.
    333,          50.,         32.5
    334,          50.,          30.
    335,          50.,         27.5
    336,          50.,          25.
    337,          50.,         22.5
    338,          50.,          20.
    339,          50.,         17.5
    340,          50.,          15.
    341,          50.,         12.5
    342,          50.,          10.
    343,          50.,          7.5
    344,          50.,           5.
    345,          50.,          2.5
    346,         62.5,           0.
    347,          75.,           0.
    348,         87.5,           0.
    349,         100.,           0.
    350,        112.5,           0.
    351,         125.,           0.
    352,        137.5,           0.
    353,        137.5,         100.
    354,         125.,         100.
    355,        112.5,         100.
    356,         100.,         100.
    357,         87.5,         100.
    358,          75.,         100.
    359,         62.5,         100.
    360,         37.5,         100.
    361,          25.,         100.
    362,         12.5,         100.
    363,           0.,         97.5
    364,           0.,          95.
    365,           0.,         92.5
    366,           0.,          90.
    367,           0.,         87.5
    368,           0.,          85.
    369,           0.,         82.5
    370,           0.,          80.
    371,           0.,         77.5
    372,           0.,          75.
    373,           0.,         72.5
    374,           0.,          70.
    375,           0.,         67.5
    376,           0.,          65.
    377,           0.,         62.5
    378,           0.,          60.
    379,           0.,         57.5
    380,           0.,          55.
    381,           0.,         52.5
    382,           0.,          50.
    383,           0.,         47.5
    384,           0.,          45.
    385,           0.,         42.5
    386,           0.,          40.
    387,           0.,         37.5
    388,           0.,          35.
    389,           0.,         32.5
    390,           0.,          30.
    391,           0.,         27.5
    392,           0.,          25.
    393,           0.,         22.5
    394,           0.,          20.
    395,           0.,         17.5
    396,           0.,          15.
    397,           0.,         12.5
    398,           0.,          10.
    399,           0.,          7.5
    400,           0.,           5.
    401,           0.,          2.5
    402,         12.5,           0.
    403,          25.,           0.
    404,         37.5,           0.
    405,   176.041672,         100.
    406,   173.958328,         100.
    407,       173.75,          2.5
    408,       173.75,           5.
    409,       173.75,          7.5
    410,       173.75,          10.
    411,       173.75,         12.5
    412,       173.75,          15.
    413,       173.75,         17.5
    414,       176.25,         17.5
    415,       176.25,          15.
    416,       176.25,         12.5
    417,       176.25,          10.
    418,       176.25,          7.5
    419,       176.25,           5.
    420,       176.25,          2.5
    421,        312.5,         97.5
    422,        312.5,          95.
    423,        312.5,         92.5
    424,        312.5,          90.
    425,        312.5,         87.5
    426,        312.5,          85.
    427,        312.5,         82.5
    428,        312.5,          80.
    429,        312.5,         77.5
    430,        312.5,          75.
    431,        312.5,         72.5
    432,        312.5,          70.
    433,        312.5,         67.5
    434,        312.5,          65.
    435,        312.5,         62.5
    436,        312.5,          60.
    437,        312.5,         57.5
    438,        312.5,          55.
    439,        312.5,         52.5
    440,        312.5,          50.
    441,        312.5,         47.5
    442,        312.5,          45.
    443,        312.5,         42.5
    444,        312.5,          40.
    445,        312.5,         37.5
    446,        312.5,          35.
    447,        312.5,         32.5
    448,        312.5,          30.
    449,        312.5,         27.5
    450,        312.5,          25.
    451,        312.5,         22.5
    452,        312.5,          20.
    453,        312.5,         17.5
    454,        312.5,          15.
    455,        312.5,         12.5
    456,        312.5,          10.
    457,        312.5,          7.5
    458,        312.5,           5.
    459,        312.5,          2.5
    460,         325.,         97.5
    461,         325.,          95.
    462,         325.,         92.5
    463,         325.,          90.
    464,         325.,         87.5
    465,         325.,          85.
    466,         325.,         82.5
    467,         325.,          80.
    468,         325.,         77.5
    469,         325.,          75.
    470,         325.,         72.5
    471,         325.,          70.
    472,         325.,         67.5
    473,         325.,          65.
    474,         325.,         62.5
    475,         325.,          60.
    476,         325.,         57.5
    477,         325.,          55.
    478,         325.,         52.5
    479,         325.,          50.
    480,         325.,         47.5
    481,         325.,          45.
    482,         325.,         42.5
    483,         325.,          40.
    484,         325.,         37.5
    485,         325.,          35.
    486,         325.,         32.5
    487,         325.,          30.
    488,         325.,         27.5
    489,         325.,          25.
    490,         325.,         22.5
    491,         325.,          20.
    492,         325.,         17.5
    493,         325.,          15.
    494,         325.,         12.5
    495,         325.,          10.
    496,         325.,          7.5
    497,         325.,           5.
    498,         325.,          2.5
    499,        337.5,         97.5
    500,        337.5,          95.
    501,        337.5,         92.5
    502,        337.5,          90.
    503,        337.5,         87.5
    504,        337.5,          85.
    505,        337.5,         82.5
    506,        337.5,          80.
    507,        337.5,         77.5
    508,        337.5,          75.
    509,        337.5,         72.5
    510,        337.5,          70.
    511,        337.5,         67.5
    512,        337.5,          65.
    513,        337.5,         62.5
    514,        337.5,          60.
    515,        337.5,         57.5
    516,        337.5,          55.
    517,        337.5,         52.5
    518,        337.5,          50.
    519,        337.5,         47.5
    520,        337.5,          45.
    521,        337.5,         42.5
    522,        337.5,          40.
    523,        337.5,         37.5
    524,        337.5,          35.
    525,        337.5,         32.5
    526,        337.5,          30.
    527,        337.5,         27.5
    528,        337.5,          25.
    529,        337.5,         22.5
    530,        337.5,          20.
    531,        337.5,         17.5
    532,        337.5,          15.
    533,        337.5,         12.5
    534,        337.5,          10.
    535,        337.5,          7.5
    536,        337.5,           5.
    537,        337.5,          2.5
    538,        212.5,         97.5
    539,        212.5,          95.
    540,        212.5,         92.5
    541,        212.5,          90.
    542,        212.5,         87.5
    543,        212.5,          85.
    544,        212.5,         82.5
    545,        212.5,          80.
    546,        212.5,         77.5
    547,        212.5,          75.
    548,        212.5,         72.5
    549,        212.5,          70.
    550,        212.5,         67.5
    551,        212.5,          65.
    552,        212.5,         62.5
    553,        212.5,          60.
    554,        212.5,         57.5
    555,        212.5,          55.
    556,        212.5,         52.5
    557,        212.5,          50.
    558,        212.5,         47.5
    559,        212.5,          45.
    560,        212.5,         42.5
    561,        212.5,          40.
    562,        212.5,         37.5
    563,        212.5,          35.
    564,        212.5,         32.5
    565,        212.5,          30.
    566,        212.5,         27.5
    567,        212.5,          25.
    568,        212.5,         22.5
    569,        212.5,          20.
    570,        212.5,         17.5
    571,        212.5,          15.
    572,        212.5,         12.5
    573,        212.5,          10.
    574,        212.5,          7.5
    575,        212.5,           5.
    576,        212.5,          2.5
    577,         225.,         97.5
    578,         225.,          95.
    579,         225.,         92.5
    580,         225.,          90.
    581,         225.,         87.5
    582,         225.,          85.
    583,         225.,         82.5
    584,         225.,          80.
    585,         225.,         77.5
    586,         225.,          75.
    587,         225.,         72.5
    588,         225.,          70.
    589,         225.,         67.5
    590,         225.,          65.
    591,         225.,         62.5
    592,         225.,          60.
    593,         225.,         57.5
    594,         225.,          55.
    595,         225.,         52.5
    596,         225.,          50.
    597,         225.,         47.5
    598,         225.,          45.
    599,         225.,         42.5
    600,         225.,          40.
    601,         225.,         37.5
    602,         225.,          35.
    603,         225.,         32.5
    604,         225.,          30.
    605,         225.,         27.5
    606,         225.,          25.
    607,         225.,         22.5
    608,         225.,          20.
    609,         225.,         17.5
    610,         225.,          15.
    611,         225.,         12.5
    612,         225.,          10.
    613,         225.,          7.5
    614,         225.,           5.
    615,         225.,          2.5
    616,        237.5,         97.5
    617,        237.5,          95.
    618,        237.5,         92.5
    619,        237.5,          90.
    620,        237.5,         87.5
    621,        237.5,          85.
    622,        237.5,         82.5
    623,        237.5,          80.
    624,        237.5,         77.5
    625,        237.5,          75.
    626,        237.5,         72.5
    627,        237.5,          70.
    628,        237.5,         67.5
    629,        237.5,          65.
    630,        237.5,         62.5
    631,        237.5,          60.
    632,        237.5,         57.5
    633,        237.5,          55.
    634,        237.5,         52.5
    635,        237.5,          50.
    636,        237.5,         47.5
    637,        237.5,          45.
    638,        237.5,         42.5
    639,        237.5,          40.
    640,        237.5,         37.5
    641,        237.5,          35.
    642,        237.5,         32.5
    643,        237.5,          30.
    644,        237.5,         27.5
    645,        237.5,          25.
    646,        237.5,         22.5
    647,        237.5,          20.
    648,        237.5,         17.5
    649,        237.5,          15.
    650,        237.5,         12.5
    651,        237.5,          10.
    652,        237.5,          7.5
    653,        237.5,           5.
    654,        237.5,          2.5
    655,         250.,         97.5
    656,         250.,          95.
    657,         250.,         92.5
    658,         250.,          90.
    659,         250.,         87.5
    660,         250.,          85.
    661,         250.,         82.5
    662,         250.,          80.
    663,         250.,         77.5
    664,         250.,          75.
    665,         250.,         72.5
    666,         250.,          70.
    667,         250.,         67.5
    668,         250.,          65.
    669,         250.,         62.5
    670,         250.,          60.
    671,         250.,         57.5
    672,         250.,          55.
    673,         250.,         52.5
    674,         250.,          50.
    675,         250.,         47.5
    676,         250.,          45.
    677,         250.,         42.5
    678,         250.,          40.
    679,         250.,         37.5
    680,         250.,          35.
    681,         250.,         32.5
    682,         250.,          30.
    683,         250.,         27.5
    684,         250.,          25.
    685,         250.,         22.5
    686,         250.,          20.
    687,         250.,         17.5
    688,         250.,          15.
    689,         250.,         12.5
    690,         250.,          10.
    691,         250.,          7.5
    692,         250.,           5.
    693,         250.,          2.5
    694,        262.5,         97.5
    695,        262.5,          95.
    696,        262.5,         92.5
    697,        262.5,          90.
    698,        262.5,         87.5
    699,        262.5,          85.
    700,        262.5,         82.5
    701,        262.5,          80.
    702,        262.5,         77.5
    703,        262.5,          75.
    704,        262.5,         72.5
    705,        262.5,          70.
    706,        262.5,         67.5
    707,        262.5,          65.
    708,        262.5,         62.5
    709,        262.5,          60.
    710,        262.5,         57.5
    711,        262.5,          55.
    712,        262.5,         52.5
    713,        262.5,          50.
    714,        262.5,         47.5
    715,        262.5,          45.
    716,        262.5,         42.5
    717,        262.5,          40.
    718,        262.5,         37.5
    719,        262.5,          35.
    720,        262.5,         32.5
    721,        262.5,          30.
    722,        262.5,         27.5
    723,        262.5,          25.
    724,        262.5,         22.5
    725,        262.5,          20.
    726,        262.5,         17.5
    727,        262.5,          15.
    728,        262.5,         12.5
    729,        262.5,          10.
    730,        262.5,          7.5
    731,        262.5,           5.
    732,        262.5,          2.5
    733,         275.,         97.5
    734,         275.,          95.
    735,         275.,         92.5
    736,         275.,          90.
    737,         275.,         87.5
    738,         275.,          85.
    739,         275.,         82.5
    740,         275.,          80.
    741,         275.,         77.5
    742,         275.,          75.
    743,         275.,         72.5
    744,         275.,          70.
    745,         275.,         67.5
    746,         275.,          65.
    747,         275.,         62.5
    748,         275.,          60.
    749,         275.,         57.5
    750,         275.,          55.
    751,         275.,         52.5
    752,         275.,          50.
    753,         275.,         47.5
    754,         275.,          45.
    755,         275.,         42.5
    756,         275.,          40.
    757,         275.,         37.5
    758,         275.,          35.
    759,         275.,         32.5
    760,         275.,          30.
    761,         275.,         27.5
    762,         275.,          25.
    763,         275.,         22.5
    764,         275.,          20.
    765,         275.,         17.5
    766,         275.,          15.
    767,         275.,         12.5
    768,         275.,          10.
    769,         275.,          7.5
    770,         275.,           5.
    771,         275.,          2.5
    772,        287.5,         97.5
    773,        287.5,          95.
    774,        287.5,         92.5
    775,        287.5,          90.
    776,        287.5,         87.5
    777,        287.5,          85.
    778,        287.5,         82.5
    779,        287.5,          80.
    780,        287.5,         77.5
    781,        287.5,          75.
    782,        287.5,         72.5
    783,        287.5,          70.
    784,        287.5,         67.5
    785,        287.5,          65.
    786,        287.5,         62.5
    787,        287.5,          60.
    788,        287.5,         57.5
    789,        287.5,          55.
    790,        287.5,         52.5
    791,        287.5,          50.
    792,        287.5,         47.5
    793,        287.5,          45.
    794,        287.5,         42.5
    795,        287.5,          40.
    796,        287.5,         37.5
    797,        287.5,          35.
    798,        287.5,         32.5
    799,        287.5,          30.
    800,        287.5,         27.5
    801,        287.5,          25.
    802,        287.5,         22.5
    803,        287.5,          20.
    804,        287.5,         17.5
    805,        287.5,          15.
    806,        287.5,         12.5
    807,        287.5,          10.
    808,        287.5,          7.5
    809,        287.5,           5.
    810,        287.5,          2.5
    811,   197.569443,          2.5
    812,   197.569443,           5.
    813,   197.569443,          7.5
    814,   197.569443,          10.
    815,   197.569443,         12.5
    816,   197.569443,          15.
    817,   197.569443,         17.5
    818,   197.569443,          20.
    819,   197.569443,         22.5
    820,   197.569443,          25.
    821,   197.569443,         27.5
    822,   197.569443,          30.
    823,   197.569443,         32.5
    824,   197.569443,          35.
    825,   197.569443,         37.5
    826,   197.569443,          40.
    827,   197.569443,         42.5
    828,   197.569443,          45.
    829,   197.569443,         47.5
    830,   197.569443,          50.
    831,   197.569443,         52.5
    832,   197.569443,          55.
    833,   197.569443,         57.5
    834,   197.569443,          60.
    835,   197.569443,         62.5
    836,   197.569443,          65.
    837,   197.569443,         67.5
    838,   197.569443,          70.
    839,   197.569443,         72.5
    840,   197.569443,          75.
    841,   197.569443,         77.5
    842,   197.569443,          80.
    843,   197.569443,         82.5
    844,   197.569443,          85.
    845,   197.569443,         87.5
    846,   197.569443,          90.
    847,   197.569443,         92.5
    848,   197.569443,          95.
    849,   197.569443,         97.5
    850,   195.138885,          2.5
    851,   195.138885,           5.
    852,   195.138885,          7.5
    853,   195.138885,          10.
    854,   195.138885,         12.5
    855,   195.138885,          15.
    856,   195.138885,         17.5
    857,   195.138885,          20.
    858,   195.138885,         22.5
    859,   195.138885,          25.
    860,   195.138885,         27.5
    861,   195.138885,          30.
    862,   195.138885,         32.5
    863,   195.138885,          35.
    864,   195.138885,         37.5
    865,   195.138885,          40.
    866,   195.138885,         42.5
    867,   195.138885,          45.
    868,   195.138885,         47.5
    869,   195.138885,          50.
    870,   195.138885,         52.5
    871,   195.138885,          55.
    872,   195.138885,         57.5
    873,   195.138885,          60.
    874,   195.138885,         62.5
    875,   195.138885,          65.
    876,   195.138885,         67.5
    877,   195.138885,          70.
    878,   195.138885,         72.5
    879,   195.138885,          75.
    880,   195.138885,         77.5
    881,   195.138885,          80.
    882,   195.138885,         82.5
    883,   195.138885,          85.
    884,   195.138885,         87.5
    885,   195.138885,          90.
    886,   195.138885,         92.5
    887,   195.138885,          95.
    888,   195.138885,         97.5
    889,   192.708328,          2.5
    890,   192.708328,           5.
    891,   192.708328,          7.5
    892,   192.708328,          10.
    893,   192.708328,         12.5
    894,   192.708328,          15.
    895,   192.708328,         17.5
    896,   192.708328,          20.
    897,   192.708328,         22.5
    898,   192.708328,          25.
    899,   192.708328,         27.5
    900,   192.708328,          30.
    901,   192.708328,         32.5
    902,   192.708328,          35.
    903,   192.708328,         37.5
    904,   192.708328,          40.
    905,   192.708328,         42.5
    906,   192.708328,          45.
    907,   192.708328,         47.5
    908,   192.708328,          50.
    909,   192.708328,         52.5
    910,   192.708328,          55.
    911,   192.708328,         57.5
    912,   192.708328,          60.
    913,   192.708328,         62.5
    914,   192.708328,          65.
    915,   192.708328,         67.5
    916,   192.708328,          70.
    917,   192.708328,         72.5
    918,   192.708328,          75.
    919,   192.708328,         77.5
    920,   192.708328,          80.
    921,   192.708328,         82.5
    922,   192.708328,          85.
    923,   192.708328,         87.5
    924,   192.708328,          90.
    925,   192.708328,         92.5
    926,   192.708328,          95.
    927,   192.708328,         97.5
    928,   190.277771,          2.5
    929,   190.277771,           5.
    930,   190.277771,          7.5
    931,   190.277771,          10.
    932,   190.277771,         12.5
    933,   190.277771,          15.
    934,   190.277771,         17.5
    935,   190.277771,          20.
    936,   190.277771,         22.5
    937,   190.277771,          25.
    938,   190.277771,         27.5
    939,   190.277771,          30.
    940,   190.277771,         32.5
    941,   190.277771,          35.
    942,   190.277771,         37.5
    943,   190.277771,          40.
    944,   190.277771,         42.5
    945,   190.277771,          45.
    946,   190.277771,         47.5
    947,   190.277771,          50.
    948,   190.277771,         52.5
    949,   190.277771,          55.
    950,   190.277771,         57.5
    951,   190.277771,          60.
    952,   190.277771,         62.5
    953,   190.277771,          65.
    954,   190.277771,         67.5
    955,   190.277771,          70.
    956,   190.277771,         72.5
    957,   190.277771,          75.
    958,   190.277771,         77.5
    959,   190.277771,          80.
    960,   190.277771,         82.5
    961,   190.277771,          85.
    962,   190.277771,         87.5
    963,   190.277771,          90.
    964,   190.277771,         92.5
    965,   190.277771,          95.
    966,   190.277771,         97.5
    967,   187.847229,          2.5
    968,   187.847229,           5.
    969,   187.847229,          7.5
    970,   187.847229,          10.
    971,   187.847229,         12.5
    972,   187.847229,          15.
    973,   187.847229,         17.5
    974,   187.847229,          20.
    975,   187.847229,         22.5
    976,   187.847229,          25.
    977,   187.847229,         27.5
    978,   187.847229,          30.
    979,   187.847229,         32.5
    980,   187.847229,          35.
    981,   187.847229,         37.5
    982,   187.847229,          40.
    983,   187.847229,         42.5
    984,   187.847229,          45.
    985,   187.847229,         47.5
    986,   187.847229,          50.
    987,   187.847229,         52.5
    988,   187.847229,          55.
    989,   187.847229,         57.5
    990,   187.847229,          60.
    991,   187.847229,         62.5
    992,   187.847229,          65.
    993,   187.847229,         67.5
    994,   187.847229,          70.
    995,   187.847229,         72.5
    996,   187.847229,          75.
    997,   187.847229,         77.5
    998,   187.847229,          80.
    999,   187.847229,         82.5
   1000,   187.847229,          85.
   1001,   187.847229,         87.5
   1002,   187.847229,          90.
   1003,   187.847229,         92.5
   1004,   187.847229,          95.
   1005,   187.847229,         97.5
   1006,   185.416672,          2.5
   1007,   185.416672,           5.
   1008,   185.416672,          7.5
   1009,   185.416672,          10.
   1010,   185.416672,         12.5
   1011,   185.416672,          15.
   1012,   185.416672,         17.5
   1013,   185.416672,          20.
   1014,   185.416672,         22.5
   1015,   185.416672,          25.
   1016,   185.416672,         27.5
   1017,   185.416672,          30.
   1018,   185.416672,         32.5
   1019,   185.416672,          35.
   1020,   185.416672,         37.5
   1021,   185.416672,          40.
   1022,   185.416672,         42.5
   1023,   185.416672,          45.
   1024,   185.416672,         47.5
   1025,   185.416672,          50.
   1026,   185.416672,         52.5
   1027,   185.416672,          55.
   1028,   185.416672,         57.5
   1029,   185.416672,          60.
   1030,   185.416672,         62.5
   1031,   185.416672,          65.
   1032,   185.416672,         67.5
   1033,   185.416672,          70.
   1034,   185.416672,         72.5
   1035,   185.416672,          75.
   1036,   185.416672,         77.5
   1037,   185.416672,          80.
   1038,   185.416672,         82.5
   1039,   185.416672,          85.
   1040,   185.416672,         87.5
   1041,   185.416672,          90.
   1042,   185.416672,         92.5
   1043,   185.416672,          95.
   1044,   185.416672,         97.5
   1045,   182.986115,          2.5
   1046,   182.986115,           5.
   1047,   182.986115,          7.5
   1048,   182.986115,          10.
   1049,   182.986115,         12.5
   1050,   182.986115,          15.
   1051,   182.986115,         17.5
   1052,   182.986115,          20.
   1053,   182.986115,         22.5
   1054,   182.986115,          25.
   1055,   182.986115,         27.5
   1056,   182.986115,          30.
   1057,   182.986115,         32.5
   1058,   182.986115,          35.
   1059,   182.986115,         37.5
   1060,   182.986115,          40.
   1061,   182.986115,         42.5
   1062,   182.986115,          45.
   1063,   182.986115,         47.5
   1064,   182.986115,          50.
   1065,   182.986115,         52.5
   1066,   182.986115,          55.
   1067,   182.986115,         57.5
   1068,   182.986115,          60.
   1069,   182.986115,         62.5
   1070,   182.986115,          65.
   1071,   182.986115,         67.5
   1072,   182.986115,          70.
   1073,   182.986115,         72.5
   1074,   182.986115,          75.
   1075,   182.986115,         77.5
   1076,   182.986115,          80.
   1077,   182.986115,         82.5
   1078,   182.986115,          85.
   1079,   182.986115,         87.5
   1080,   182.986115,          90.
   1081,   182.986115,         92.5
   1082,   182.986115,          95.
   1083,   182.986115,         97.5
   1084,   180.555557,          2.5
   1085,   180.555557,           5.
   1086,   180.555557,          7.5
   1087,   180.555557,          10.
   1088,   180.555557,         12.5
   1089,   180.555557,          15.
   1090,   180.555557,         17.5
   1091,   180.555557,          20.
   1092,   180.555557,         22.5
   1093,   180.555557,          25.
   1094,   180.555557,         27.5
   1095,   180.555557,          30.
   1096,   180.555557,         32.5
   1097,   180.555557,          35.
   1098,   180.555557,         37.5
   1099,   180.555557,          40.
   1100,   180.555557,         42.5
   1101,   180.555557,          45.
   1102,   180.555557,         47.5
   1103,   180.555557,          50.
   1104,   180.555557,         52.5
   1105,   180.555557,          55.
   1106,   180.555557,         57.5
   1107,   180.555557,          60.
   1108,   180.555557,         62.5
   1109,   180.555557,          65.
   1110,   180.555557,         67.5
   1111,   180.555557,          70.
   1112,   180.555557,         72.5
   1113,   180.555557,          75.
   1114,   180.555557,         77.5
   1115,   180.555557,          80.
   1116,   180.555557,         82.5
   1117,   180.555557,          85.
   1118,   180.555557,         87.5
   1119,   180.555557,          90.
   1120,   180.555557,         92.5
   1121,   180.555557,          95.
   1122,   180.555557,         97.5
   1123,   169.444443,          2.5
   1124,   169.444443,           5.
   1125,   169.444443,          7.5
   1126,   169.444443,          10.
   1127,   169.444443,         12.5
   1128,   169.444443,          15.
   1129,   169.444443,         17.5
   1130,   169.444443,          20.
   1131,   169.444443,         22.5
   1132,   169.444443,          25.
   1133,   169.444443,         27.5
   1134,   169.444443,          30.
   1135,   169.444443,         32.5
   1136,   169.444443,          35.
   1137,   169.444443,         37.5
   1138,   169.444443,          40.
   1139,   169.444443,         42.5
   1140,   169.444443,          45.
   1141,   169.444443,         47.5
   1142,   169.444443,          50.
   1143,   169.444443,         52.5
   1144,   169.444443,          55.
   1145,   169.444443,         57.5
   1146,   169.444443,          60.
   1147,   169.444443,         62.5
   1148,   169.444443,          65.
   1149,   169.444443,         67.5
   1150,   169.444443,          70.
   1151,   169.444443,         72.5
   1152,   169.444443,          75.
   1153,   169.444443,         77.5
   1154,   169.444443,          80.
   1155,   169.444443,         82.5
   1156,   169.444443,          85.
   1157,   169.444443,         87.5
   1158,   169.444443,          90.
   1159,   169.444443,         92.5
   1160,   169.444443,          95.
   1161,   169.444443,         97.5
   1162,   167.013885,          2.5
   1163,   167.013885,           5.
   1164,   167.013885,          7.5
   1165,   167.013885,          10.
   1166,   167.013885,         12.5
   1167,   167.013885,          15.
   1168,   167.013885,         17.5
   1169,   167.013885,          20.
   1170,   167.013885,         22.5
   1171,   167.013885,          25.
   1172,   167.013885,         27.5
   1173,   167.013885,          30.
   1174,   167.013885,         32.5
   1175,   167.013885,          35.
   1176,   167.013885,         37.5
   1177,   167.013885,          40.
   1178,   167.013885,         42.5
   1179,   167.013885,          45.
   1180,   167.013885,         47.5
   1181,   167.013885,          50.
   1182,   167.013885,         52.5
   1183,   167.013885,          55.
   1184,   167.013885,         57.5
   1185,   167.013885,          60.
   1186,   167.013885,         62.5
   1187,   167.013885,          65.
   1188,   167.013885,         67.5
   1189,   167.013885,          70.
   1190,   167.013885,         72.5
   1191,   167.013885,          75.
   1192,   167.013885,         77.5
   1193,   167.013885,          80.
   1194,   167.013885,         82.5
   1195,   167.013885,          85.
   1196,   167.013885,         87.5
   1197,   167.013885,          90.
   1198,   167.013885,         92.5
   1199,   167.013885,          95.
   1200,   167.013885,         97.5
   1201,   164.583328,          2.5
   1202,   164.583328,           5.
   1203,   164.583328,          7.5
   1204,   164.583328,          10.
   1205,   164.583328,         12.5
   1206,   164.583328,          15.
   1207,   164.583328,         17.5
   1208,   164.583328,          20.
   1209,   164.583328,         22.5
   1210,   164.583328,          25.
   1211,   164.583328,         27.5
   1212,   164.583328,          30.
   1213,   164.583328,         32.5
   1214,   164.583328,          35.
   1215,   164.583328,         37.5
   1216,   164.583328,          40.
   1217,   164.583328,         42.5
   1218,   164.583328,          45.
   1219,   164.583328,         47.5
   1220,   164.583328,          50.
   1221,   164.583328,         52.5
   1222,   164.583328,          55.
   1223,   164.583328,         57.5
   1224,   164.583328,          60.
   1225,   164.583328,         62.5
   1226,   164.583328,          65.
   1227,   164.583328,         67.5
   1228,   164.583328,          70.
   1229,   164.583328,         72.5
   1230,   164.583328,          75.
   1231,   164.583328,         77.5
   1232,   164.583328,          80.
   1233,   164.583328,         82.5
   1234,   164.583328,          85.
   1235,   164.583328,         87.5
   1236,   164.583328,          90.
   1237,   164.583328,         92.5
   1238,   164.583328,          95.
   1239,   164.583328,         97.5
   1240,   162.152771,          2.5
   1241,   162.152771,           5.
   1242,   162.152771,          7.5
   1243,   162.152771,          10.
   1244,   162.152771,         12.5
   1245,   162.152771,          15.
   1246,   162.152771,         17.5
   1247,   162.152771,          20.
   1248,   162.152771,         22.5
   1249,   162.152771,          25.
   1250,   162.152771,         27.5
   1251,   162.152771,          30.
   1252,   162.152771,         32.5
   1253,   162.152771,          35.
   1254,   162.152771,         37.5
   1255,   162.152771,          40.
   1256,   162.152771,         42.5
   1257,   162.152771,          45.
   1258,   162.152771,         47.5
   1259,   162.152771,          50.
   1260,   162.152771,         52.5
   1261,   162.152771,          55.
   1262,   162.152771,         57.5
   1263,   162.152771,          60.
   1264,   162.152771,         62.5
   1265,   162.152771,          65.
   1266,   162.152771,         67.5
   1267,   162.152771,          70.
   1268,   162.152771,         72.5
   1269,   162.152771,          75.
   1270,   162.152771,         77.5
   1271,   162.152771,          80.
   1272,   162.152771,         82.5
   1273,   162.152771,          85.
   1274,   162.152771,         87.5
   1275,   162.152771,          90.
   1276,   162.152771,         92.5
   1277,   162.152771,          95.
   1278,   162.152771,         97.5
   1279,   159.722229,          2.5
   1280,   159.722229,           5.
   1281,   159.722229,          7.5
   1282,   159.722229,          10.
   1283,   159.722229,         12.5
   1284,   159.722229,          15.
   1285,   159.722229,         17.5
   1286,   159.722229,          20.
   1287,   159.722229,         22.5
   1288,   159.722229,          25.
   1289,   159.722229,         27.5
   1290,   159.722229,          30.
   1291,   159.722229,         32.5
   1292,   159.722229,          35.
   1293,   159.722229,         37.5
   1294,   159.722229,          40.
   1295,   159.722229,         42.5
   1296,   159.722229,          45.
   1297,   159.722229,         47.5
   1298,   159.722229,          50.
   1299,   159.722229,         52.5
   1300,   159.722229,          55.
   1301,   159.722229,         57.5
   1302,   159.722229,          60.
   1303,   159.722229,         62.5
   1304,   159.722229,          65.
   1305,   159.722229,         67.5
   1306,   159.722229,          70.
   1307,   159.722229,         72.5
   1308,   159.722229,          75.
   1309,   159.722229,         77.5
   1310,   159.722229,          80.
   1311,   159.722229,         82.5
   1312,   159.722229,          85.
   1313,   159.722229,         87.5
   1314,   159.722229,          90.
   1315,   159.722229,         92.5
   1316,   159.722229,          95.
   1317,   159.722229,         97.5
   1318,   157.291672,          2.5
   1319,   157.291672,           5.
   1320,   157.291672,          7.5
   1321,   157.291672,          10.
   1322,   157.291672,         12.5
   1323,   157.291672,          15.
   1324,   157.291672,         17.5
   1325,   157.291672,          20.
   1326,   157.291672,         22.5
   1327,   157.291672,          25.
   1328,   157.291672,         27.5
   1329,   157.291672,          30.
   1330,   157.291672,         32.5
   1331,   157.291672,          35.
   1332,   157.291672,         37.5
   1333,   157.291672,          40.
   1334,   157.291672,         42.5
   1335,   157.291672,          45.
   1336,   157.291672,         47.5
   1337,   157.291672,          50.
   1338,   157.291672,         52.5
   1339,   157.291672,          55.
   1340,   157.291672,         57.5
   1341,   157.291672,          60.
   1342,   157.291672,         62.5
   1343,   157.291672,          65.
   1344,   157.291672,         67.5
   1345,   157.291672,          70.
   1346,   157.291672,         72.5
   1347,   157.291672,          75.
   1348,   157.291672,         77.5
   1349,   157.291672,          80.
   1350,   157.291672,         82.5
   1351,   157.291672,          85.
   1352,   157.291672,         87.5
   1353,   157.291672,          90.
   1354,   157.291672,         92.5
   1355,   157.291672,          95.
   1356,   157.291672,         97.5
   1357,   154.861115,          2.5
   1358,   154.861115,           5.
   1359,   154.861115,          7.5
   1360,   154.861115,          10.
   1361,   154.861115,         12.5
   1362,   154.861115,          15.
   1363,   154.861115,         17.5
   1364,   154.861115,          20.
   1365,   154.861115,         22.5
   1366,   154.861115,          25.
   1367,   154.861115,         27.5
   1368,   154.861115,          30.
   1369,   154.861115,         32.5
   1370,   154.861115,          35.
   1371,   154.861115,         37.5
   1372,   154.861115,          40.
   1373,   154.861115,         42.5
   1374,   154.861115,          45.
   1375,   154.861115,         47.5
   1376,   154.861115,          50.
   1377,   154.861115,         52.5
   1378,   154.861115,          55.
   1379,   154.861115,         57.5
   1380,   154.861115,          60.
   1381,   154.861115,         62.5
   1382,   154.861115,          65.
   1383,   154.861115,         67.5
   1384,   154.861115,          70.
   1385,   154.861115,         72.5
   1386,   154.861115,          75.
   1387,   154.861115,         77.5
   1388,   154.861115,          80.
   1389,   154.861115,         82.5
   1390,   154.861115,          85.
   1391,   154.861115,         87.5
   1392,   154.861115,          90.
   1393,   154.861115,         92.5
   1394,   154.861115,          95.
   1395,   154.861115,         97.5
   1396,   152.430557,          2.5
   1397,   152.430557,           5.
   1398,   152.430557,          7.5
   1399,   152.430557,          10.
   1400,   152.430557,         12.5
   1401,   152.430557,          15.
   1402,   152.430557,         17.5
   1403,   152.430557,          20.
   1404,   152.430557,         22.5
   1405,   152.430557,          25.
   1406,   152.430557,         27.5
   1407,   152.430557,          30.
   1408,   152.430557,         32.5
   1409,   152.430557,          35.
   1410,   152.430557,         37.5
   1411,   152.430557,          40.
   1412,   152.430557,         42.5
   1413,   152.430557,          45.
   1414,   152.430557,         47.5
   1415,   152.430557,          50.
   1416,   152.430557,         52.5
   1417,   152.430557,          55.
   1418,   152.430557,         57.5
   1419,   152.430557,          60.
   1420,   152.430557,         62.5
   1421,   152.430557,          65.
   1422,   152.430557,         67.5
   1423,   152.430557,          70.
   1424,   152.430557,         72.5
   1425,   152.430557,          75.
   1426,   152.430557,         77.5
   1427,   152.430557,          80.
   1428,   152.430557,         82.5
   1429,   152.430557,          85.
   1430,   152.430557,         87.5
   1431,   152.430557,          90.
   1432,   152.430557,         92.5
   1433,   152.430557,          95.
   1434,   152.430557,         97.5
   1435,         62.5,         97.5
   1436,         62.5,          95.
   1437,         62.5,         92.5
   1438,         62.5,          90.
   1439,         62.5,         87.5
   1440,         62.5,          85.
   1441,         62.5,         82.5
   1442,         62.5,          80.
   1443,         62.5,         77.5
   1444,         62.5,          75.
   1445,         62.5,         72.5
   1446,         62.5,          70.
   1447,         62.5,         67.5
   1448,         62.5,          65.
   1449,         62.5,         62.5
   1450,         62.5,          60.
   1451,         62.5,         57.5
   1452,         62.5,          55.
   1453,         62.5,         52.5
   1454,         62.5,          50.
   1455,         62.5,         47.5
   1456,         62.5,          45.
   1457,         62.5,         42.5
   1458,         62.5,          40.
   1459,         62.5,         37.5
   1460,         62.5,          35.
   1461,         62.5,         32.5
   1462,         62.5,          30.
   1463,         62.5,         27.5
   1464,         62.5,          25.
   1465,         62.5,         22.5
   1466,         62.5,          20.
   1467,         62.5,         17.5
   1468,         62.5,          15.
   1469,         62.5,         12.5
   1470,         62.5,          10.
   1471,         62.5,          7.5
   1472,         62.5,           5.
   1473,         62.5,          2.5
   1474,          75.,         97.5
   1475,          75.,          95.
   1476,          75.,         92.5
   1477,          75.,          90.
   1478,          75.,         87.5
   1479,          75.,          85.
   1480,          75.,         82.5
   1481,          75.,          80.
   1482,          75.,         77.5
   1483,          75.,          75.
   1484,          75.,         72.5
   1485,          75.,          70.
   1486,          75.,         67.5
   1487,          75.,          65.
   1488,          75.,         62.5
   1489,          75.,          60.
   1490,          75.,         57.5
   1491,          75.,          55.
   1492,          75.,         52.5
   1493,          75.,          50.
   1494,          75.,         47.5
   1495,          75.,          45.
   1496,          75.,         42.5
   1497,          75.,          40.
   1498,          75.,         37.5
   1499,          75.,          35.
   1500,          75.,         32.5
   1501,          75.,          30.
   1502,          75.,         27.5
   1503,          75.,          25.
   1504,          75.,         22.5
   1505,          75.,          20.
   1506,          75.,         17.5
   1507,          75.,          15.
   1508,          75.,         12.5
   1509,          75.,          10.
   1510,          75.,          7.5
   1511,          75.,           5.
   1512,          75.,          2.5
   1513,         87.5,         97.5
   1514,         87.5,          95.
   1515,         87.5,         92.5
   1516,         87.5,          90.
   1517,         87.5,         87.5
   1518,         87.5,          85.
   1519,         87.5,         82.5
   1520,         87.5,          80.
   1521,         87.5,         77.5
   1522,         87.5,          75.
   1523,         87.5,         72.5
   1524,         87.5,          70.
   1525,         87.5,         67.5
   1526,         87.5,          65.
   1527,         87.5,         62.5
   1528,         87.5,          60.
   1529,         87.5,         57.5
   1530,         87.5,          55.
   1531,         87.5,         52.5
   1532,         87.5,          50.
   1533,         87.5,         47.5
   1534,         87.5,          45.
   1535,         87.5,         42.5
   1536,         87.5,          40.
   1537,         87.5,         37.5
   1538,         87.5,          35.
   1539,         87.5,         32.5
   1540,         87.5,          30.
   1541,         87.5,         27.5
   1542,         87.5,          25.
   1543,         87.5,         22.5
   1544,         87.5,          20.
   1545,         87.5,         17.5
   1546,         87.5,          15.
   1547,         87.5,         12.5
   1548,         87.5,          10.
   1549,         87.5,          7.5
   1550,         87.5,           5.
   1551,         87.5,          2.5
   1552,         100.,         97.5
   1553,         100.,          95.
   1554,         100.,         92.5
   1555,         100.,          90.
   1556,         100.,         87.5
   1557,         100.,          85.
   1558,         100.,         82.5
   1559,         100.,          80.
   1560,         100.,         77.5
   1561,         100.,          75.
   1562,         100.,         72.5
   1563,         100.,          70.
   1564,         100.,         67.5
   1565,         100.,          65.
   1566,         100.,         62.5
   1567,         100.,          60.
   1568,         100.,         57.5
   1569,         100.,          55.
   1570,         100.,         52.5
   1571,         100.,          50.
   1572,         100.,         47.5
   1573,         100.,          45.
   1574,         100.,         42.5
   1575,         100.,          40.
   1576,         100.,         37.5
   1577,         100.,          35.
   1578,         100.,         32.5
   1579,         100.,          30.
   1580,         100.,         27.5
   1581,         100.,          25.
   1582,         100.,         22.5
   1583,         100.,          20.
   1584,         100.,         17.5
   1585,         100.,          15.
   1586,         100.,         12.5
   1587,         100.,          10.
   1588,         100.,          7.5
   1589,         100.,           5.
   1590,         100.,          2.5
   1591,        112.5,         97.5
   1592,        112.5,          95.
   1593,        112.5,         92.5
   1594,        112.5,          90.
   1595,        112.5,         87.5
   1596,        112.5,          85.
   1597,        112.5,         82.5
   1598,        112.5,          80.
   1599,        112.5,         77.5
   1600,        112.5,          75.
   1601,        112.5,         72.5
   1602,        112.5,          70.
   1603,        112.5,         67.5
   1604,        112.5,          65.
   1605,        112.5,         62.5
   1606,        112.5,          60.
   1607,        112.5,         57.5
   1608,        112.5,          55.
   1609,        112.5,         52.5
   1610,        112.5,          50.
   1611,        112.5,         47.5
   1612,        112.5,          45.
   1613,        112.5,         42.5
   1614,        112.5,          40.
   1615,        112.5,         37.5
   1616,        112.5,          35.
   1617,        112.5,         32.5
   1618,        112.5,          30.
   1619,        112.5,         27.5
   1620,        112.5,          25.
   1621,        112.5,         22.5
   1622,        112.5,          20.
   1623,        112.5,         17.5
   1624,        112.5,          15.
   1625,        112.5,         12.5
   1626,        112.5,          10.
   1627,        112.5,          7.5
   1628,        112.5,           5.
   1629,        112.5,          2.5
   1630,         125.,         97.5
   1631,         125.,          95.
   1632,         125.,         92.5
   1633,         125.,          90.
   1634,         125.,         87.5
   1635,         125.,          85.
   1636,         125.,         82.5
   1637,         125.,          80.
   1638,         125.,         77.5
   1639,         125.,          75.
   1640,         125.,         72.5
   1641,         125.,          70.
   1642,         125.,         67.5
   1643,         125.,          65.
   1644,         125.,         62.5
   1645,         125.,          60.
   1646,         125.,         57.5
   1647,         125.,          55.
   1648,         125.,         52.5
   1649,         125.,          50.
   1650,         125.,         47.5
   1651,         125.,          45.
   1652,         125.,         42.5
   1653,         125.,          40.
   1654,         125.,         37.5
   1655,         125.,          35.
   1656,         125.,         32.5
   1657,         125.,          30.
   1658,         125.,         27.5
   1659,         125.,          25.
   1660,         125.,         22.5
   1661,         125.,          20.
   1662,         125.,         17.5
   1663,         125.,          15.
   1664,         125.,         12.5
   1665,         125.,          10.
   1666,         125.,          7.5
   1667,         125.,           5.
   1668,         125.,          2.5
   1669,        137.5,         97.5
   1670,        137.5,          95.
   1671,        137.5,         92.5
   1672,        137.5,          90.
   1673,        137.5,         87.5
   1674,        137.5,          85.
   1675,        137.5,         82.5
   1676,        137.5,          80.
   1677,        137.5,         77.5
   1678,        137.5,          75.
   1679,        137.5,         72.5
   1680,        137.5,          70.
   1681,        137.5,         67.5
   1682,        137.5,          65.
   1683,        137.5,         62.5
   1684,        137.5,          60.
   1685,        137.5,         57.5
   1686,        137.5,          55.
   1687,        137.5,         52.5
   1688,        137.5,          50.
   1689,        137.5,         47.5
   1690,        137.5,          45.
   1691,        137.5,         42.5
   1692,        137.5,          40.
   1693,        137.5,         37.5
   1694,        137.5,          35.
   1695,        137.5,         32.5
   1696,        137.5,          30.
   1697,        137.5,         27.5
   1698,        137.5,          25.
   1699,        137.5,         22.5
   1700,        137.5,          20.
   1701,        137.5,         17.5
   1702,        137.5,          15.
   1703,        137.5,         12.5
   1704,        137.5,          10.
   1705,        137.5,          7.5
   1706,        137.5,           5.
   1707,        137.5,          2.5
   1708,         37.5,          2.5
   1709,         37.5,           5.
   1710,         37.5,          7.5
   1711,         37.5,          10.
   1712,         37.5,         12.5
   1713,         37.5,          15.
   1714,         37.5,         17.5
   1715,         37.5,          20.
   1716,         37.5,         22.5
   1717,         37.5,          25.
   1718,         37.5,         27.5
   1719,         37.5,          30.
   1720,         37.5,         32.5
   1721,         37.5,          35.
   1722,         37.5,         37.5
   1723,         37.5,          40.
   1724,         37.5,         42.5
   1725,         37.5,          45.
   1726,         37.5,         47.5
   1727,         37.5,          50.
   1728,         37.5,         52.5
   1729,         37.5,          55.
   1730,         37.5,         57.5
   1731,         37.5,          60.
   1732,         37.5,         62.5
   1733,         37.5,          65.
   1734,         37.5,         67.5
   1735,         37.5,          70.
   1736,         37.5,         72.5
   1737,         37.5,          75.
   1738,         37.5,         77.5
   1739,         37.5,          80.
   1740,         37.5,         82.5
   1741,         37.5,          85.
   1742,         37.5,         87.5
   1743,         37.5,          90.
   1744,         37.5,         92.5
   1745,         37.5,          95.
   1746,         37.5,         97.5
   1747,          25.,          2.5
   1748,          25.,           5.
   1749,          25.,          7.5
   1750,          25.,          10.
   1751,          25.,         12.5
   1752,          25.,          15.
   1753,          25.,         17.5
   1754,          25.,          20.
   1755,          25.,         22.5
   1756,          25.,          25.
   1757,          25.,         27.5
   1758,          25.,          30.
   1759,          25.,         32.5
   1760,          25.,          35.
   1761,          25.,         37.5
   1762,          25.,          40.
   1763,          25.,         42.5
   1764,          25.,          45.
   1765,          25.,         47.5
   1766,          25.,          50.
   1767,          25.,         52.5
   1768,          25.,          55.
   1769,          25.,         57.5
   1770,          25.,          60.
   1771,          25.,         62.5
   1772,          25.,          65.
   1773,          25.,         67.5
   1774,          25.,          70.
   1775,          25.,         72.5
   1776,          25.,          75.
   1777,          25.,         77.5
   1778,          25.,          80.
   1779,          25.,         82.5
   1780,          25.,          85.
   1781,          25.,         87.5
   1782,          25.,          90.
   1783,          25.,         92.5
   1784,          25.,          95.
   1785,          25.,         97.5
   1786,         12.5,          2.5
   1787,         12.5,           5.
   1788,         12.5,          7.5
   1789,         12.5,          10.
   1790,         12.5,         12.5
   1791,         12.5,          15.
   1792,         12.5,         17.5
   1793,         12.5,          20.
   1794,         12.5,         22.5
   1795,         12.5,          25.
   1796,         12.5,         27.5
   1797,         12.5,          30.
   1798,         12.5,         32.5
   1799,         12.5,          35.
   1800,         12.5,         37.5
   1801,         12.5,          40.
   1802,         12.5,         42.5
   1803,         12.5,          45.
   1804,         12.5,         47.5
   1805,         12.5,          50.
   1806,         12.5,         52.5
   1807,         12.5,          55.
   1808,         12.5,         57.5
   1809,         12.5,          60.
   1810,         12.5,         62.5
   1811,         12.5,          65.
   1812,         12.5,         67.5
   1813,         12.5,          70.
   1814,         12.5,         72.5
   1815,         12.5,          75.
   1816,         12.5,         77.5
   1817,         12.5,          80.
   1818,         12.5,         82.5
   1819,         12.5,          85.
   1820,         12.5,         87.5
   1821,         12.5,          90.
   1822,         12.5,         92.5
   1823,         12.5,          95.
   1824,         12.5,         97.5
   1825,   174.936417,     97.77034
   1826,   176.320282,   23.9348831
   1827,   176.140656,    25.909071
   1828,   176.076767,   28.3014603
   1829,   176.059448,   30.7772198
   1830,   176.055283,   33.2716331
   1831,   176.054337,    35.770359
   1832,   176.054138,   38.2700768
   1833,   176.054108,   40.7700157
   1834,   176.054092,   43.2700043
   1835,   176.054092,   45.7700005
   1836,   176.054092,   48.2700005
   1837,   176.054092,   50.7700005
   1838,   176.054092,   53.2700005
   1839,   176.054092,   55.7700005
   1840,   176.054092,   58.2700005
   1841,   176.054092,   60.7700005
   1842,   176.054092,   63.2700005
   1843,   176.054092,   65.7699966
   1844,   176.054092,   68.2699966
   1845,   176.054092,   70.7699966
   1846,   176.054092,   73.2699966
   1847,   176.054092,   75.7699966
   1848,   176.054092,   78.2699966
   1849,   176.054092,   80.7699966
   1850,   176.054092,   83.2699966
   1851,   176.054092,   85.7699966
   1852,   176.054092,   88.2699966
   1853,   176.054092,   90.7699966
   1854,    176.02298,   93.2429962
   1855,   175.814072,   95.5918503
   1856,   174.217667,   24.3492527
   1857,   174.029022,   26.6865215
   1858,   173.982986,   29.1362114
   1859,   173.971527,   31.6225815
   1860,   173.968735,   34.1191101
   1861,   173.968079,   36.6182594
   1862,   173.967926,   39.1180611
   1863,   173.967896,   41.6180115
   1864,    173.96788,   44.1180038
   1865,    173.96788,       46.618
   1866,    173.96788,       49.118
   1867,    173.96788,       51.618
   1868,    173.96788,       54.118
   1869,    173.96788,       56.618
   1870,    173.96788,       59.118
   1871,    173.96788,       61.618
   1872,    173.96788,   64.1179962
   1873,    173.96788,   66.6179962
   1874,    173.96788,   69.1179962
   1875,    173.96788,   71.6179962
   1876,    173.96788,   74.1179962
   1877,    173.96788,   76.6179962
   1878,    173.96788,   79.1179962
   1879,    173.96788,   81.6179962
   1880,    173.96788,   84.1179962
   1881,    173.96788,   86.6179962
   1882,    173.96788,   89.1179962
   1883,   173.958252,    91.609642
   1884,    173.87764,    93.992569
   1885,   173.675629,   95.9709549
   1886,   175.089661,   22.2140217
*Element, type=CPS3
  1,   1,  21, 421
  2, 421, 104,   1
  3,  21,  22, 422
  4, 422, 421,  21
  5,  22,  23, 423
  6, 423, 422,  22
  7,  23,  24, 424
  8, 424, 423,  23
  9,  24,  25, 425
 10, 425, 424,  24
 11,  25,  26, 426
 12, 426, 425,  25
 13,  26,  27, 427
 14, 427, 426,  26
 15,  27,  28, 428
 16, 428, 427,  27
 17,  28,  29, 429
 18, 429, 428,  28
 19,  29,  30, 430
 20, 430, 429,  29
 21,  30,  31, 431
 22, 431, 430,  30
 23,  31,  32, 432
 24, 432, 431,  31
 25,  32,  33, 433
 26, 433, 432,  32
 27,  33,  34, 434
 28, 434, 433,  33
 29,  34,  35, 435
 30, 435, 434,  34
 31,  35,  36, 436
 32, 436, 435,  35
 33,  36,  37, 437
 34, 437, 436,  36
 35,  37,  38, 438
 36, 438, 437,  37
 37,  38,  39, 439
 38, 439, 438,  38
 39,  39,  40, 440
 40, 440, 439,  39
 41,  40,  41, 441
 42, 441, 440,  40
 43,  41,  42, 442
 44, 442, 441,  41
 45,  42,  43, 443
 46, 443, 442,  42
 47,  43,  44, 444
 48, 444, 443,  43
 49,  44,  45, 445
 50, 445, 444,  44
 51,  45,  46, 446
 52, 446, 445,  45
 53,  46,  47, 447
 54, 447, 446,  46
 55,  47,  48, 448
 56, 448, 447,  47
 57,  48,  49, 449
 58, 449, 448,  48
 59,  49,  50, 450
 60, 450, 449,  49
 61,  50,  51, 451
 62, 451, 450,  50
 63,  51,  52, 452
 64, 452, 451,  51
 65,  52,  53, 453
 66, 453, 452,  52
 67,  53,  54, 454
 68, 454, 453,  53
 69,  54,  55, 455
 70, 455, 454,  54
 71,  55,  56, 456
 72, 456, 455,  55
 73,  56,  57, 457
 74, 457, 456,  56
 75,  57,  58, 458
 76, 458, 457,  57
 77,  58,  59, 459
 78, 459, 458,  58
 79,  59,   2,  60
 80,  60, 459,  59
 81, 104, 421, 460
 82, 460, 103, 104
 83, 421, 422, 461
 84, 461, 460, 421
 85, 422, 423, 462
 86, 462, 461, 422
 87, 423, 424, 463
 88, 463, 462, 423
 89, 424, 425, 464
 90, 464, 463, 424
 91, 425, 426, 465
 92, 465, 464, 425
 93, 426, 427, 466
 94, 466, 465, 426
 95, 427, 428, 467
 96, 467, 466, 427
 97, 428, 429, 468
 98, 468, 467, 428
 99, 429, 430, 469
100, 469, 468, 429
101, 430, 431, 470
102, 470, 469, 430
103, 431, 432, 471
104, 471, 470, 431
105, 432, 433, 472
106, 472, 471, 432
107, 433, 434, 473
108, 473, 472, 433
109, 434, 435, 474
110, 474, 473, 434
111, 435, 436, 475
112, 475, 474, 435
113, 436, 437, 476
114, 476, 475, 436
115, 437, 438, 477
116, 477, 476, 437
117, 438, 439, 478
118, 478, 477, 438
119, 439, 440, 479
120, 479, 478, 439
121, 440, 441, 480
122, 480, 479, 440
123, 441, 442, 481
124, 481, 480, 441
125, 442, 443, 482
126, 482, 481, 442
127, 443, 444, 483
128, 483, 482, 443
129, 444, 445, 484
130, 484, 483, 444
131, 445, 446, 485
132, 485, 484, 445
133, 446, 447, 486
134, 486, 485, 446
135, 447, 448, 487
136, 487, 486, 447
137, 448, 449, 488
138, 488, 487, 448
139, 449, 450, 489
140, 489, 488, 449
141, 450, 451, 490
142, 490, 489, 450
143, 451, 452, 491
144, 491, 490, 451
145, 452, 453, 492
146, 492, 491, 452
147, 453, 454, 493
148, 493, 492, 453
149, 454, 455, 494
150, 494, 493, 454
151, 455, 456, 495
152, 495, 494, 455
153, 456, 457, 496
154, 496, 495, 456
155, 457, 458, 497
156, 497, 496, 457
157, 458, 459, 498
158, 498, 497, 458
159, 459,  60,  61
160,  61, 498, 459
161, 103, 460, 499
162, 499, 102, 103
163, 460, 461, 500
164, 500, 499, 460
165, 461, 462, 501
166, 501, 500, 461
167, 462, 463, 502
168, 502, 501, 462
169, 463, 464, 503
170, 503, 502, 463
171, 464, 465, 504
172, 504, 503, 464
173, 465, 466, 505
174, 505, 504, 465
175, 466, 467, 506
176, 506, 505, 466
177, 467, 468, 507
178, 507, 506, 467
179, 468, 469, 508
180, 508, 507, 468
181, 469, 470, 509
182, 509, 508, 469
183, 470, 471, 510
184, 510, 509, 470
185, 471, 472, 511
186, 511, 510, 471
187, 472, 473, 512
188, 512, 511, 472
189, 473, 474, 513
190, 513, 512, 473
191, 474, 475, 514
192, 514, 513, 474
193, 475, 476, 515
194, 515, 514, 475
195, 476, 477, 516
196, 516, 515, 476
197, 477, 478, 517
198, 517, 516, 477
199, 478, 479, 518
200, 518, 517, 478
201, 479, 480, 519
202, 519, 518, 479
203, 480, 481, 520
204, 520, 519, 480
205, 481, 482, 521
206, 521, 520, 481
207, 482, 483, 522
208, 522, 521, 482
209, 483, 484, 523
210, 523, 522, 483
211, 484, 485, 524
212, 524, 523, 484
213, 485, 486, 525
214, 525, 524, 485
215, 486, 487, 526
216, 526, 525, 486
217, 487, 488, 527
218, 527, 526, 487
219, 488, 489, 528
220, 528, 527, 488
221, 489, 490, 529
222, 529, 528, 489
223, 490, 491, 530
224, 530, 529, 490
225, 491, 492, 531
226, 531, 530, 491
227, 492, 493, 532
228, 532, 531, 492
229, 493, 494, 533
230, 533, 532, 493
231, 494, 495, 534
232, 534, 533, 494
233, 495, 496, 535
234, 535, 534, 495
235, 496, 497, 536
236, 536, 535, 496
237, 497, 498, 537
238, 537, 536, 497
239, 498,  61,  62
240,  62, 537, 498
241, 102, 499, 101
242, 101,   4, 102
243, 499, 500, 100
244, 100, 101, 499
245, 500, 501,  99
246,  99, 100, 500
247, 501, 502,  98
248,  98,  99, 501
249, 502, 503,  97
250,  97,  98, 502
251, 503, 504,  96
252,  96,  97, 503
253, 504, 505,  95
254,  95,  96, 504
255, 505, 506,  94
256,  94,  95, 505
257, 506, 507,  93
258,  93,  94, 506
259, 507, 508,  92
260,  92,  93, 507
261, 508, 509,  91
262,  91,  92, 508
263, 509, 510,  90
264,  90,  91, 509
265, 510, 511,  89
266,  89,  90, 510
267, 511, 512,  88
268,  88,  89, 511
269, 512, 513,  87
270,  87,  88, 512
271, 513, 514,  86
272,  86,  87, 513
273, 514, 515,  85
274,  85,  86, 514
275, 515, 516,  84
276,  84,  85, 515
277, 516, 517,  83
278,  83,  84, 516
279, 517, 518,  82
280,  82,  83, 517
281, 518, 519,  81
282,  81,  82, 518
283, 519, 520,  80
284,  80,  81, 519
285, 520, 521,  79
286,  79,  80, 520
287, 521, 522,  78
288,  78,  79, 521
289, 522, 523,  77
290,  77,  78, 522
291, 523, 524,  76
292,  76,  77, 523
293, 524, 525,  75
294,  75,  76, 524
295, 525, 526,  74
296,  74,  75, 525
297, 526, 527,  73
298,  73,  74, 526
299, 527, 528,  72
300,  72,  73, 527
301, 528, 529,  71
302,  71,  72, 528
303, 529, 530,  70
304,  70,  71, 529
305, 530, 531,  69
306,  69,  70, 530
307, 531, 532,  68
308,  68,  69, 531
309, 532, 533,  67
310,  67,  68, 532
311, 533, 534,  66
312,  66,  67, 533
313, 534, 535,  65
314,  65,  66, 534
315, 535, 536,  64
316,  64,  65, 535
317, 536, 537,  63
318,  63,  64, 536
319, 537,  62,   3
320,   3,  63, 537
321,   5, 105, 538
322, 538, 157,   5
323, 105, 106, 539
324, 539, 538, 105
325, 106, 107, 540
326, 540, 539, 106
327, 107, 108, 541
328, 541, 540, 107
329, 108, 109, 542
330, 542, 541, 108
331, 109, 110, 543
332, 543, 542, 109
333, 110, 111, 544
334, 544, 543, 110
335, 111, 112, 545
336, 545, 544, 111
337, 112, 113, 546
338, 546, 545, 112
339, 113, 114, 547
340, 547, 546, 113
341, 114, 115, 548
342, 548, 547, 114
343, 115, 116, 549
344, 549, 548, 115
345, 116, 117, 550
346, 550, 549, 116
347, 117, 118, 551
348, 551, 550, 117
349, 118, 119, 552
350, 552, 551, 118
351, 119, 120, 553
352, 553, 552, 119
353, 120, 121, 554
354, 554, 553, 120
355, 121, 122, 555
356, 555, 554, 121
357, 122, 123, 556
358, 556, 555, 122
359, 123, 124, 557
360, 557, 556, 123
361, 124, 125, 558
362, 558, 557, 124
363, 125, 126, 559
364, 559, 558, 125
365, 126, 127, 560
366, 560, 559, 126
367, 127, 128, 561
368, 561, 560, 127
369, 128, 129, 562
370, 562, 561, 128
371, 129, 130, 563
372, 563, 562, 129
373, 130, 131, 564
374, 564, 563, 130
375, 131, 132, 565
376, 565, 564, 131
377, 132, 133, 566
378, 566, 565, 132
379, 133, 134, 567
380, 567, 566, 133
381, 134, 135, 568
382, 568, 567, 134
383, 135, 136, 569
384, 569, 568, 135
385, 136, 137, 570
386, 570, 569, 136
387, 137, 138, 571
388, 571, 570, 137
389, 138, 139, 572
390, 572, 571, 138
391, 139, 140, 573
392, 573, 572, 139
393, 140, 141, 574
394, 574, 573, 140
395, 141, 142, 575
396, 575, 574, 141
397, 142, 143, 576
398, 576, 575, 142
399, 143,   6, 144
400, 144, 576, 143
401, 157, 538, 577
402, 577, 156, 157
403, 538, 539, 578
404, 578, 577, 538
405, 539, 540, 579
406, 579, 578, 539
407, 540, 541, 580
408, 580, 579, 540
409, 541, 542, 581
410, 581, 580, 541
411, 542, 543, 582
412, 582, 581, 542
413, 543, 544, 583
414, 583, 582, 543
415, 544, 545, 584
416, 584, 583, 544
417, 545, 546, 585
418, 585, 584, 545
419, 546, 547, 586
420, 586, 585, 546
421, 547, 548, 587
422, 587, 586, 547
423, 548, 549, 588
424, 588, 587, 548
425, 549, 550, 589
426, 589, 588, 549
427, 550, 551, 590
428, 590, 589, 550
429, 551, 552, 591
430, 591, 590, 551
431, 552, 553, 592
432, 592, 591, 552
433, 553, 554, 593
434, 593, 592, 553
435, 554, 555, 594
436, 594, 593, 554
437, 555, 556, 595
438, 595, 594, 555
439, 556, 557, 596
440, 596, 595, 556
441, 557, 558, 597
442, 597, 596, 557
443, 558, 559, 598
444, 598, 597, 558
445, 559, 560, 599
446, 599, 598, 559
447, 560, 561, 600
448, 600, 599, 560
449, 561, 562, 601
450, 601, 600, 561
451, 562, 563, 602
452, 602, 601, 562
453, 563, 564, 603
454, 603, 602, 563
455, 564, 565, 604
456, 604, 603, 564
457, 565, 566, 605
458, 605, 604, 565
459, 566, 567, 606
460, 606, 605, 566
461, 567, 568, 607
462, 607, 606, 567
463, 568, 569, 608
464, 608, 607, 568
465, 569, 570, 609
466, 609, 608, 569
467, 570, 571, 610
468, 610, 609, 570
469, 571, 572, 611
470, 611, 610, 571
471, 572, 573, 612
472, 612, 611, 572
473, 573, 574, 613
474, 613, 612, 573
475, 574, 575, 614
476, 614, 613, 574
477, 575, 576, 615
478, 615, 614, 575
479, 576, 144, 145
480, 145, 615, 576
481, 156, 577, 616
482, 616, 155, 156
483, 577, 578, 617
484, 617, 616, 577
485, 578, 579, 618
486, 618, 617, 578
487, 579, 580, 619
488, 619, 618, 579
489, 580, 581, 620
490, 620, 619, 580
491, 581, 582, 621
492, 621, 620, 581
493, 582, 583, 622
494, 622, 621, 582
495, 583, 584, 623
496, 623, 622, 583
497, 584, 585, 624
498, 624, 623, 584
499, 585, 586, 625
500, 625, 624, 585
501, 586, 587, 626
502, 626, 625, 586
503, 587, 588, 627
504, 627, 626, 587
505, 588, 589, 628
506, 628, 627, 588
507, 589, 590, 629
508, 629, 628, 589
509, 590, 591, 630
510, 630, 629, 590
511, 591, 592, 631
512, 631, 630, 591
513, 592, 593, 632
514, 632, 631, 592
515, 593, 594, 633
516, 633, 632, 593
517, 594, 595, 634
518, 634, 633, 594
519, 595, 596, 635
520, 635, 634, 595
521, 596, 597, 636
522, 636, 635, 596
523, 597, 598, 637
524, 637, 636, 597
525, 598, 599, 638
526, 638, 637, 598
527, 599, 600, 639
528, 639, 638, 599
529, 600, 601, 640
530, 640, 639, 600
531, 601, 602, 641
532, 641, 640, 601
533, 602, 603, 642
534, 642, 641, 602
535, 603, 604, 643
536, 643, 642, 603
537, 604, 605, 644
538, 644, 643, 604
539, 605, 606, 645
540, 645, 644, 605
541, 606, 607, 646
542, 646, 645, 606
543, 607, 608, 647
544, 647, 646, 607
545, 608, 609, 648
546, 648, 647, 608
547, 609, 610, 649
548, 649, 648, 609
549, 610, 611, 650
550, 650, 649, 610
551, 611, 612, 651
552, 651, 650, 611
553, 612, 613, 652
554, 652, 651, 612
555, 613, 614, 653
556, 653, 652, 613
557, 614, 615, 654
558, 654, 653, 614
559, 615, 145, 146
560, 146, 654, 615
561, 155, 616, 655
562, 655, 154, 155
563, 616, 617, 656
564, 656, 655, 616
565, 617, 618, 657
566, 657, 656, 617
567, 618, 619, 658
568, 658, 657, 618
569, 619, 620, 659
570, 659, 658, 619
571, 620, 621, 660
572, 660, 659, 620
573, 621, 622, 661
574, 661, 660, 621
575, 622, 623, 662
576, 662, 661, 622
577, 623, 624, 663
578, 663, 662, 623
579, 624, 625, 664
580, 664, 663, 624
581, 625, 626, 665
582, 665, 664, 625
583, 626, 627, 666
584, 666, 665, 626
585, 627, 628, 667
586, 667, 666, 627
587, 628, 629, 668
588, 668, 667, 628
589, 629, 630, 669
590, 669, 668, 629
591, 630, 631, 670
592, 670, 669, 630
593, 631, 632, 671
594, 671, 670, 631
595, 632, 633, 672
596, 672, 671, 632
597, 633, 634, 673
598, 673, 672, 633
599, 634, 635, 674
600, 674, 673, 634
601, 635, 636, 675
602, 675, 674, 635
603, 636, 637, 676
604, 676, 675, 636
605, 637, 638, 677
606, 677, 676, 637
607, 638, 639, 678
608, 678, 677, 638
609, 639, 640, 679
610, 679, 678, 639
611, 640, 641, 680
612, 680, 679, 640
613, 641, 642, 681
614, 681, 680, 641
615, 642, 643, 682
616, 682, 681, 642
617, 643, 644, 683
618, 683, 682, 643
619, 644, 645, 684
620, 684, 683, 644
621, 645, 646, 685
622, 685, 684, 645
623, 646, 647, 686
624, 686, 685, 646
625, 647, 648, 687
626, 687, 686, 647
627, 648, 649, 688
628, 688, 687, 648
629, 649, 650, 689
630, 689, 688, 649
631, 650, 651, 690
632, 690, 689, 650
633, 651, 652, 691
634, 691, 690, 651
635, 652, 653, 692
636, 692, 691, 652
637, 653, 654, 693
638, 693, 692, 653
639, 654, 146, 147
640, 147, 693, 654
641, 154, 655, 694
642, 694, 153, 154
643, 655, 656, 695
644, 695, 694, 655
645, 656, 657, 696
646, 696, 695, 656
647, 657, 658, 697
648, 697, 696, 657
649, 658, 659, 698
650, 698, 697, 658
651, 659, 660, 699
652, 699, 698, 659
653, 660, 661, 700
654, 700, 699, 660
655, 661, 662, 701
656, 701, 700, 661
657, 662, 663, 702
658, 702, 701, 662
659, 663, 664, 703
660, 703, 702, 663
661, 664, 665, 704
662, 704, 703, 664
663, 665, 666, 705
664, 705, 704, 665
665, 666, 667, 706
666, 706, 705, 666
667, 667, 668, 707
668, 707, 706, 667
669, 668, 669, 708
670, 708, 707, 668
671, 669, 670, 709
672, 709, 708, 669
673, 670, 671, 710
674, 710, 709, 670
675, 671, 672, 711
676, 711, 710, 671
677, 672, 673, 712
678, 712, 711, 672
679, 673, 674, 713
680, 713, 712, 673
681, 674, 675, 714
682, 714, 713, 674
683, 675, 676, 715
684, 715, 714, 675
685, 676, 677, 716
686, 716, 715, 676
687, 677, 678, 717
688, 717, 716, 677
689, 678, 679, 718
690, 718, 717, 678
691, 679, 680, 719
692, 719, 718, 679
693, 680, 681, 720
694, 720, 719, 680
695, 681, 682, 721
696, 721, 720, 681
697, 682, 683, 722
698, 722, 721, 682
699, 683, 684, 723
700, 723, 722, 683
701, 684, 685, 724
702, 724, 723, 684
703, 685, 686, 725
704, 725, 724, 685
705, 686, 687, 726
706, 726, 725, 686
707, 687, 688, 727
708, 727, 726, 687
709, 688, 689, 728
710, 728, 727, 688
711, 689, 690, 729
712, 729, 728, 689
713, 690, 691, 730
714, 730, 729, 690
715, 691, 692, 731
716, 731, 730, 691
717, 692, 693, 732
718, 732, 731, 692
719, 693, 147, 148
720, 148, 732, 693
721, 153, 694, 733
722, 733, 152, 153
723, 694, 695, 734
724, 734, 733, 694
725, 695, 696, 735
726, 735, 734, 695
727, 696, 697, 736
728, 736, 735, 696
729, 697, 698, 737
730, 737, 736, 697
731, 698, 699, 738
732, 738, 737, 698
733, 699, 700, 739
734, 739, 738, 699
735, 700, 701, 740
736, 740, 739, 700
737, 701, 702, 741
738, 741, 740, 701
739, 702, 703, 742
740, 742, 741, 702
741, 703, 704, 743
742, 743, 742, 703
743, 704, 705, 744
744, 744, 743, 704
745, 705, 706, 745
746, 745, 744, 705
747, 706, 707, 746
748, 746, 745, 706
749, 707, 708, 747
750, 747, 746, 707
751, 708, 709, 748
752, 748, 747, 708
753, 709, 710, 749
754, 749, 748, 709
755, 710, 711, 750
756, 750, 749, 710
757, 711, 712, 751
758, 751, 750, 711
759, 712, 713, 752
760, 752, 751, 712
761, 713, 714, 753
762, 753, 752, 713
763, 714, 715, 754
764, 754, 753, 714
765, 715, 716, 755
766, 755, 754, 715
767, 716, 717, 756
768, 756, 755, 716
769, 717, 718, 757
770, 757, 756, 717
771, 718, 719, 758
772, 758, 757, 718
773, 719, 720, 759
774, 759, 758, 719
775, 720, 721, 760
776, 760, 759, 720
777, 721, 722, 761
778, 761, 760, 721
779, 722, 723, 762
780, 762, 761, 722
781, 723, 724, 763
782, 763, 762, 723
783, 724, 725, 764
784, 764, 763, 724
785, 725, 726, 765
786, 765, 764, 725
787, 726, 727, 766
788, 766, 765, 726
789, 727, 728, 767
790, 767, 766, 727
791, 728, 729, 768
792, 768, 767, 728
793, 729, 730, 769
794, 769, 768, 729
795, 730, 731, 770
796, 770, 769, 730
797, 731, 732, 771
798, 771, 770, 731
799, 732, 148, 149
800, 149, 771, 732
801, 152, 733, 772
802, 772, 151, 152
803, 733, 734, 773
804, 773, 772, 733
805, 734, 735, 774
806, 774, 773, 734
807, 735, 736, 775
808, 775, 774, 735
809, 736, 737, 776
810, 776, 775, 736
811, 737, 738, 777
812, 777, 776, 737
813, 738, 739, 778
814, 778, 777, 738
815, 739, 740, 779
816, 779, 778, 739
817, 740, 741, 780
818, 780, 779, 740
819, 741, 742, 781
820, 781, 780, 741
821, 742, 743, 782
822, 782, 781, 742
823, 743, 744, 783
824, 783, 782, 743
825, 744, 745, 784
826, 784, 783, 744
827, 745, 746, 785
828, 785, 784, 745
829, 746, 747, 786
830, 786, 785, 746
831, 747, 748, 787
832, 787, 786, 747
833, 748, 749, 788
834, 788, 787, 748
835, 749, 750, 789
836, 789, 788, 749
837, 750, 751, 790
838, 790, 789, 750
839, 751, 752, 791
840, 791, 790, 751
841, 752, 753, 792
842, 792, 791, 752
843, 753, 754, 793
844, 793, 792, 753
845, 754, 755, 794
846, 794, 793, 754
847, 755, 756, 795
848, 795, 794, 755
849, 756, 757, 796
850, 796, 795, 756
851, 757, 758, 797
852, 797, 796, 757
853, 758, 759, 798
854, 798, 797, 758
855, 759, 760, 799
856, 799, 798, 759
857, 760, 761, 800
858, 800, 799, 760
859, 761, 762, 801
860, 801, 800, 761
861, 762, 763, 802
862, 802, 801, 762
863, 763, 764, 803
864, 803, 802, 763
865, 764, 765, 804
866, 804, 803, 764
867, 765, 766, 805
868, 805, 804, 765
869, 766, 767, 806
870, 806, 805, 766
871, 767, 768, 807
872, 807, 806, 767
873, 768, 769, 808
874, 808, 807, 768
875, 769, 770, 809
876, 809, 808, 769
877, 770, 771, 810
878, 810, 809, 770
879, 771, 149, 150
880, 150, 810, 771
881, 151, 772,  21
882,  21,   1, 151
883, 772, 773,  22
884,  22,  21, 772
885, 773, 774,  23
886,  23,  22, 773
887, 774, 775,  24
888,  24,  23, 774
889, 775, 776,  25
890,  25,  24, 775
891, 776, 777,  26
892,  26,  25, 776
893, 777, 778,  27
894,  27,  26, 777
895, 778, 779,  28
896,  28,  27, 778
897, 779, 780,  29
898,  29,  28, 779
899, 780, 781,  30
900,  30,  29, 780
901, 781, 782,  31
902,  31,  30, 781
903, 782, 783,  32
904,  32,  31, 782
905, 783, 784,  33
906,  33,  32, 783
907, 784, 785,  34
908,  34,  33, 784
909, 785, 786,  35
910,  35,  34, 785
911, 786, 787,  36
912,  36,  35, 786
913, 787, 788,  37
914,  37,  36, 787
915, 788, 789,  38
916,  38,  37, 788
917, 789, 790,  39
918,  39,  38, 789
919, 790, 791,  40
920,  40,  39, 790
921, 791, 792,  41
922,  41,  40, 791
923, 792, 793,  42
924,  42,  41, 792
925, 793, 794,  43
926,  43,  42, 793
927, 794, 795,  44
928,  44,  43, 794
929, 795, 796,  45
930,  45,  44, 795
931, 796, 797,  46
932,  46,  45, 796
933, 797, 798,  47
934,  47,  46, 797
935, 798, 799,  48
936,  48,  47, 798
937, 799, 800,  49
938,  49,  48, 799
939, 800, 801,  50
940,  50,  49, 800
941, 801, 802,  51
942,  51,  50, 801
943, 802, 803,  52
944,  52,  51, 802
945, 803, 804,  53
946,  53,  52, 803
947, 804, 805,  54
948,  54,  53, 804
949, 805, 806,  55
950,  55,  54, 805
951, 806, 807,  56
952,  56,  55, 806
953, 807, 808,  57
954,  57,  56, 807
955, 808, 809,  58
956,  58,  57, 808
957, 809, 810,  59
958,  59,  58, 809
959, 810, 150,   2
960,   2,  59, 810
 961,    6,  143,  811
 962,  811,  212,    6
 963,  143,  142,  812
 964,  812,  811,  143
 965,  142,  141,  813
 966,  813,  812,  142
 967,  141,  140,  814
 968,  814,  813,  141
 969,  140,  139,  815
 970,  815,  814,  140
 971,  139,  138,  816
 972,  816,  815,  139
 973,  138,  137,  817
 974,  817,  816,  138
 975,  137,  136,  818
 976,  818,  817,  137
 977,  136,  135,  819
 978,  819,  818,  136
 979,  135,  134,  820
 980,  820,  819,  135
 981,  134,  133,  821
 982,  821,  820,  134
 983,  133,  132,  822
 984,  822,  821,  133
 985,  132,  131,  823
 986,  823,  822,  132
 987,  131,  130,  824
 988,  824,  823,  131
 989,  130,  129,  825
 990,  825,  824,  130
 991,  129,  128,  826
 992,  826,  825,  129
 993,  128,  127,  827
 994,  827,  826,  128
 995,  127,  126,  828
 996,  828,  827,  127
 997,  126,  125,  829
 998,  829,  828,  126
 999,  125,  124,  830
1000,  830,  829,  125
1001,  124,  123,  831
1002,  831,  830,  124
1003,  123,  122,  832
1004,  832,  831,  123
1005,  122,  121,  833
1006,  833,  832,  122
1007,  121,  120,  834
1008,  834,  833,  121
1009,  120,  119,  835
1010,  835,  834,  120
1011,  119,  118,  836
1012,  836,  835,  119
1013,  118,  117,  837
1014,  837,  836,  118
1015,  117,  116,  838
1016,  838,  837,  117
1017,  116,  115,  839
1018,  839,  838,  116
1019,  115,  114,  840
1020,  840,  839,  115
1021,  114,  113,  841
1022,  841,  840,  114
1023,  113,  112,  842
1024,  842,  841,  113
1025,  112,  111,  843
1026,  843,  842,  112
1027,  111,  110,  844
1028,  844,  843,  111
1029,  110,  109,  845
1030,  845,  844,  110
1031,  109,  108,  846
1032,  846,  845,  109
1033,  108,  107,  847
1034,  847,  846,  108
1035,  107,  106,  848
1036,  848,  847,  107
1037,  106,  105,  849
1038,  849,  848,  106
1039,  105,    5,  158
1040,  158,  849,  105
1041,  212,  811,  850
1042,  850,  211,  212
1043,  811,  812,  851
1044,  851,  850,  811
1045,  812,  813,  852
1046,  852,  851,  812
1047,  813,  814,  853
1048,  853,  852,  813
1049,  814,  815,  854
1050,  854,  853,  814
1051,  815,  816,  855
1052,  855,  854,  815
1053,  816,  817,  856
1054,  856,  855,  816
1055,  817,  818,  857
1056,  857,  856,  817
1057,  818,  819,  858
1058,  858,  857,  818
1059,  819,  820,  859
1060,  859,  858,  819
1061,  820,  821,  860
1062,  860,  859,  820
1063,  821,  822,  861
1064,  861,  860,  821
1065,  822,  823,  862
1066,  862,  861,  822
1067,  823,  824,  863
1068,  863,  862,  823
1069,  824,  825,  864
1070,  864,  863,  824
1071,  825,  826,  865
1072,  865,  864,  825
1073,  826,  827,  866
1074,  866,  865,  826
1075,  827,  828,  867
1076,  867,  866,  827
1077,  828,  829,  868
1078,  868,  867,  828
1079,  829,  830,  869
1080,  869,  868,  829
1081,  830,  831,  870
1082,  870,  869,  830
1083,  831,  832,  871
1084,  871,  870,  831
1085,  832,  833,  872
1086,  872,  871,  832
1087,  833,  834,  873
1088,  873,  872,  833
1089,  834,  835,  874
1090,  874,  873,  834
1091,  835,  836,  875
1092,  875,  874,  835
1093,  836,  837,  876
1094,  876,  875,  836
1095,  837,  838,  877
1096,  877,  876,  837
1097,  838,  839,  878
1098,  878,  877,  838
1099,  839,  840,  879
1100,  879,  878,  839
1101,  840,  841,  880
1102,  880,  879,  840
1103,  841,  842,  881
1104,  881,  880,  841
1105,  842,  843,  882
1106,  882,  881,  842
1107,  843,  844,  883
1108,  883,  882,  843
1109,  844,  845,  884
1110,  884,  883,  844
1111,  845,  846,  885
1112,  885,  884,  845
1113,  846,  847,  886
1114,  886,  885,  846
1115,  847,  848,  887
1116,  887,  886,  847
1117,  848,  849,  888
1118,  888,  887,  848
1119,  849,  158,  159
1120,  159,  888,  849
1121,  211,  850,  889
1122,  889,  210,  211
1123,  850,  851,  890
1124,  890,  889,  850
1125,  851,  852,  891
1126,  891,  890,  851
1127,  852,  853,  892
1128,  892,  891,  852
1129,  853,  854,  893
1130,  893,  892,  853
1131,  854,  855,  894
1132,  894,  893,  854
1133,  855,  856,  895
1134,  895,  894,  855
1135,  856,  857,  896
1136,  896,  895,  856
1137,  857,  858,  897
1138,  897,  896,  857
1139,  858,  859,  898
1140,  898,  897,  858
1141,  859,  860,  899
1142,  899,  898,  859
1143,  860,  861,  900
1144,  900,  899,  860
1145,  861,  862,  901
1146,  901,  900,  861
1147,  862,  863,  902
1148,  902,  901,  862
1149,  863,  864,  903
1150,  903,  902,  863
1151,  864,  865,  904
1152,  904,  903,  864
1153,  865,  866,  905
1154,  905,  904,  865
1155,  866,  867,  906
1156,  906,  905,  866
1157,  867,  868,  907
1158,  907,  906,  867
1159,  868,  869,  908
1160,  908,  907,  868
1161,  869,  870,  909
1162,  909,  908,  869
1163,  870,  871,  910
1164,  910,  909,  870
1165,  871,  872,  911
1166,  911,  910,  871
1167,  872,  873,  912
1168,  912,  911,  872
1169,  873,  874,  913
1170,  913,  912,  873
1171,  874,  875,  914
1172,  914,  913,  874
1173,  875,  876,  915
1174,  915,  914,  875
1175,  876,  877,  916
1176,  916,  915,  876
1177,  877,  878,  917
1178,  917,  916,  877
1179,  878,  879,  918
1180,  918,  917,  878
1181,  879,  880,  919
1182,  919,  918,  879
1183,  880,  881,  920
1184,  920,  919,  880
1185,  881,  882,  921
1186,  921,  920,  881
1187,  882,  883,  922
1188,  922,  921,  882
1189,  883,  884,  923
1190,  923,  922,  883
1191,  884,  885,  924
1192,  924,  923,  884
1193,  885,  886,  925
1194,  925,  924,  885
1195,  886,  887,  926
1196,  926,  925,  886
1197,  887,  888,  927
1198,  927,  926,  887
1199,  888,  159,  160
1200,  160,  927,  888
1201,  210,  889,  928
1202,  928,  209,  210
1203,  889,  890,  929
1204,  929,  928,  889
1205,  890,  891,  930
1206,  930,  929,  890
1207,  891,  892,  931
1208,  931,  930,  891
1209,  892,  893,  932
1210,  932,  931,  892
1211,  893,  894,  933
1212,  933,  932,  893
1213,  894,  895,  934
1214,  934,  933,  894
1215,  895,  896,  935
1216,  935,  934,  895
1217,  896,  897,  936
1218,  936,  935,  896
1219,  897,  898,  937
1220,  937,  936,  897
1221,  898,  899,  938
1222,  938,  937,  898
1223,  899,  900,  939
1224,  939,  938,  899
1225,  900,  901,  940
1226,  940,  939,  900
1227,  901,  902,  941
1228,  941,  940,  901
1229,  902,  903,  942
1230,  942,  941,  902
1231,  903,  904,  943
1232,  943,  942,  903
1233,  904,  905,  944
1234,  944,  943,  904
1235,  905,  906,  945
1236,  945,  944,  905
1237,  906,  907,  946
1238,  946,  945,  906
1239,  907,  908,  947
1240,  947,  946,  907
1241,  908,  909,  948
1242,  948,  947,  908
1243,  909,  910,  949
1244,  949,  948,  909
1245,  910,  911,  950
1246,  950,  949,  910
1247,  911,  912,  951
1248,  951,  950,  911
1249,  912,  913,  952
1250,  952,  951,  912
1251,  913,  914,  953
1252,  953,  952,  913
1253,  914,  915,  954
1254,  954,  953,  914
1255,  915,  916,  955
1256,  955,  954,  915
1257,  916,  917,  956
1258,  956,  955,  916
1259,  917,  918,  957
1260,  957,  956,  917
1261,  918,  919,  958
1262,  958,  957,  918
1263,  919,  920,  959
1264,  959,  958,  919
1265,  920,  921,  960
1266,  960,  959,  920
1267,  921,  922,  961
1268,  961,  960,  921
1269,  922,  923,  962
1270,  962,  961,  922
1271,  923,  924,  963
1272,  963,  962,  923
1273,  924,  925,  964
1274,  964,  963,  924
1275,  925,  926,  965
1276,  965,  964,  925
1277,  926,  927,  966
1278,  966,  965,  926
1279,  927,  160,  161
1280,  161,  966,  927
1281,  209,  928,  967
1282,  967,  208,  209
1283,  928,  929,  968
1284,  968,  967,  928
1285,  929,  930,  969
1286,  969,  968,  929
1287,  930,  931,  970
1288,  970,  969,  930
1289,  931,  932,  971
1290,  971,  970,  931
1291,  932,  933,  972
1292,  972,  971,  932
1293,  933,  934,  973
1294,  973,  972,  933
1295,  934,  935,  974
1296,  974,  973,  934
1297,  935,  936,  975
1298,  975,  974,  935
1299,  936,  937,  976
1300,  976,  975,  936
1301,  937,  938,  977
1302,  977,  976,  937
1303,  938,  939,  978
1304,  978,  977,  938
1305,  939,  940,  979
1306,  979,  978,  939
1307,  940,  941,  980
1308,  980,  979,  940
1309,  941,  942,  981
1310,  981,  980,  941
1311,  942,  943,  982
1312,  982,  981,  942
1313,  943,  944,  983
1314,  983,  982,  943
1315,  944,  945,  984
1316,  984,  983,  944
1317,  945,  946,  985
1318,  985,  984,  945
1319,  946,  947,  986
1320,  986,  985,  946
1321,  947,  948,  987
1322,  987,  986,  947
1323,  948,  949,  988
1324,  988,  987,  948
1325,  949,  950,  989
1326,  989,  988,  949
1327,  950,  951,  990
1328,  990,  989,  950
1329,  951,  952,  991
1330,  991,  990,  951
1331,  952,  953,  992
1332,  992,  991,  952
1333,  953,  954,  993
1334,  993,  992,  953
1335,  954,  955,  994
1336,  994,  993,  954
1337,  955,  956,  995
1338,  995,  994,  955
1339,  956,  957,  996
1340,  996,  995,  956
1341,  957,  958,  997
1342,  997,  996,  957
1343,  958,  959,  998
1344,  998,  997,  958
1345,  959,  960,  999
1346,  999,  998,  959
1347,  960,  961, 1000
1348, 1000,  999,  960
1349,  961,  962, 1001
1350, 1001, 1000,  961
1351,  962,  963, 1002
1352, 1002, 1001,  962
1353,  963,  964, 1003
1354, 1003, 1002,  963
1355,  964,  965, 1004
1356, 1004, 1003,  964
1357,  965,  966, 1005
1358, 1005, 1004,  965
1359,  966,  161,  162
1360,  162, 1005,  966
1361,  208,  967, 1006
1362, 1006,  207,  208
1363,  967,  968, 1007
1364, 1007, 1006,  967
1365,  968,  969, 1008
1366, 1008, 1007,  968
1367,  969,  970, 1009
1368, 1009, 1008,  969
1369,  970,  971, 1010
1370, 1010, 1009,  970
1371,  971,  972, 1011
1372, 1011, 1010,  971
1373,  972,  973, 1012
1374, 1012, 1011,  972
1375,  973,  974, 1013
1376, 1013, 1012,  973
1377,  974,  975, 1014
1378, 1014, 1013,  974
1379,  975,  976, 1015
1380, 1015, 1014,  975
1381,  976,  977, 1016
1382, 1016, 1015,  976
1383,  977,  978, 1017
1384, 1017, 1016,  977
1385,  978,  979, 1018
1386, 1018, 1017,  978
1387,  979,  980, 1019
1388, 1019, 1018,  979
1389,  980,  981, 1020
1390, 1020, 1019,  980
1391,  981,  982, 1021
1392, 1021, 1020,  981
1393,  982,  983, 1022
1394, 1022, 1021,  982
1395,  983,  984, 1023
1396, 1023, 1022,  983
1397,  984,  985, 1024
1398, 1024, 1023,  984
1399,  985,  986, 1025
1400, 1025, 1024,  985
1401,  986,  987, 1026
1402, 1026, 1025,  986
1403,  987,  988, 1027
1404, 1027, 1026,  987
1405,  988,  989, 1028
1406, 1028, 1027,  988
1407,  989,  990, 1029
1408, 1029, 1028,  989
1409,  990,  991, 1030
1410, 1030, 1029,  990
1411,  991,  992, 1031
1412, 1031, 1030,  991
1413,  992,  993, 1032
1414, 1032, 1031,  992
1415,  993,  994, 1033
1416, 1033, 1032,  993
1417,  994,  995, 1034
1418, 1034, 1033,  994
1419,  995,  996, 1035
1420, 1035, 1034,  995
1421,  996,  997, 1036
1422, 1036, 1035,  996
1423,  997,  998, 1037
1424, 1037, 1036,  997
1425,  998,  999, 1038
1426, 1038, 1037,  998
1427,  999, 1000, 1039
1428, 1039, 1038,  999
1429, 1000, 1001, 1040
1430, 1040, 1039, 1000
1431, 1001, 1002, 1041
1432, 1041, 1040, 1001
1433, 1002, 1003, 1042
1434, 1042, 1041, 1002
1435, 1003, 1004, 1043
1436, 1043, 1042, 1003
1437, 1004, 1005, 1044
1438, 1044, 1043, 1004
1439, 1005,  162,  163
1440,  163, 1044, 1005
1441,  207, 1006, 1045
1442, 1045,  206,  207
1443, 1006, 1007, 1046
1444, 1046, 1045, 1006
1445, 1007, 1008, 1047
1446, 1047, 1046, 1007
1447, 1008, 1009, 1048
1448, 1048, 1047, 1008
1449, 1009, 1010, 1049
1450, 1049, 1048, 1009
1451, 1010, 1011, 1050
1452, 1050, 1049, 1010
1453, 1011, 1012, 1051
1454, 1051, 1050, 1011
1455, 1012, 1013, 1052
1456, 1052, 1051, 1012
1457, 1013, 1014, 1053
1458, 1053, 1052, 1013
1459, 1014, 1015, 1054
1460, 1054, 1053, 1014
1461, 1015, 1016, 1055
1462, 1055, 1054, 1015
1463, 1016, 1017, 1056
1464, 1056, 1055, 1016
1465, 1017, 1018, 1057
1466, 1057, 1056, 1017
1467, 1018, 1019, 1058
1468, 1058, 1057, 1018
1469, 1019, 1020, 1059
1470, 1059, 1058, 1019
1471, 1020, 1021, 1060
1472, 1060, 1059, 1020
1473, 1021, 1022, 1061
1474, 1061, 1060, 1021
1475, 1022, 1023, 1062
1476, 1062, 1061, 1022
1477, 1023, 1024, 1063
1478, 1063, 1062, 1023
1479, 1024, 1025, 1064
1480, 1064, 1063, 1024
1481, 1025, 1026, 1065
1482, 1065, 1064, 1025
1483, 1026, 1027, 1066
1484, 1066, 1065, 1026
1485, 1027, 1028, 1067
1486, 1067, 1066, 1027
1487, 1028, 1029, 1068
1488, 1068, 1067, 1028
1489, 1029, 1030, 1069
1490, 1069, 1068, 1029
1491, 1030, 1031, 1070
1492, 1070, 1069, 1030
1493, 1031, 1032, 1071
1494, 1071, 1070, 1031
1495, 1032, 1033, 1072
1496, 1072, 1071, 1032
1497, 1033, 1034, 1073
1498, 1073, 1072, 1033
1499, 1034, 1035, 1074
1500, 1074, 1073, 1034
1501, 1035, 1036, 1075
1502, 1075, 1074, 1035
1503, 1036, 1037, 1076
1504, 1076, 1075, 1036
1505, 1037, 1038, 1077
1506, 1077, 1076, 1037
1507, 1038, 1039, 1078
1508, 1078, 1077, 1038
1509, 1039, 1040, 1079
1510, 1079, 1078, 1039
1511, 1040, 1041, 1080
1512, 1080, 1079, 1040
1513, 1041, 1042, 1081
1514, 1081, 1080, 1041
1515, 1042, 1043, 1082
1516, 1082, 1081, 1042
1517, 1043, 1044, 1083
1518, 1083, 1082, 1043
1519, 1044,  163,  164
1520,  164, 1083, 1044
1521,  206, 1045, 1084
1522, 1084,  205,  206
1523, 1045, 1046, 1085
1524, 1085, 1084, 1045
1525, 1046, 1047, 1086
1526, 1086, 1085, 1046
1527, 1047, 1048, 1087
1528, 1087, 1086, 1047
1529, 1048, 1049, 1088
1530, 1088, 1087, 1048
1531, 1049, 1050, 1089
1532, 1089, 1088, 1049
1533, 1050, 1051, 1090
1534, 1090, 1089, 1050
1535, 1051, 1052, 1091
1536, 1091, 1090, 1051
1537, 1052, 1053, 1092
1538, 1092, 1091, 1052
1539, 1053, 1054, 1093
1540, 1093, 1092, 1053
1541, 1054, 1055, 1094
1542, 1094, 1093, 1054
1543, 1055, 1056, 1095
1544, 1095, 1094, 1055
1545, 1056, 1057, 1096
1546, 1096, 1095, 1056
1547, 1057, 1058, 1097
1548, 1097, 1096, 1057
1549, 1058, 1059, 1098
1550, 1098, 1097, 1058
1551, 1059, 1060, 1099
1552, 1099, 1098, 1059
1553, 1060, 1061, 1100
1554, 1100, 1099, 1060
1555, 1061, 1062, 1101
1556, 1101, 1100, 1061
1557, 1062, 1063, 1102
1558, 1102, 1101, 1062
1559, 1063, 1064, 1103
1560, 1103, 1102, 1063
1561, 1064, 1065, 1104
1562, 1104, 1103, 1064
1563, 1065, 1066, 1105
1564, 1105, 1104, 1065
1565, 1066, 1067, 1106
1566, 1106, 1105, 1066
1567, 1067, 1068, 1107
1568, 1107, 1106, 1067
1569, 1068, 1069, 1108
1570, 1108, 1107, 1068
1571, 1069, 1070, 1109
1572, 1109, 1108, 1069
1573, 1070, 1071, 1110
1574, 1110, 1109, 1070
1575, 1071, 1072, 1111
1576, 1111, 1110, 1071
1577, 1072, 1073, 1112
1578, 1112, 1111, 1072
1579, 1073, 1074, 1113
1580, 1113, 1112, 1073
1581, 1074, 1075, 1114
1582, 1114, 1113, 1074
1583, 1075, 1076, 1115
1584, 1115, 1114, 1075
1585, 1076, 1077, 1116
1586, 1116, 1115, 1076
1587, 1077, 1078, 1117
1588, 1117, 1116, 1077
1589, 1078, 1079, 1118
1590, 1118, 1117, 1078
1591, 1079, 1080, 1119
1592, 1119, 1118, 1079
1593, 1080, 1081, 1120
1594, 1120, 1119, 1080
1595, 1081, 1082, 1121
1596, 1121, 1120, 1081
1597, 1082, 1083, 1122
1598, 1122, 1121, 1082
1599, 1083,  164,  165
1600,  165, 1122, 1083
1601,  205, 1084,  204
1602,  204,    8,  205
1603, 1084, 1085,  203
1604,  203,  204, 1084
1605, 1085, 1086,  202
1606,  202,  203, 1085
1607, 1086, 1087,  201
1608,  201,  202, 1086
1609, 1087, 1088,  200
1610,  200,  201, 1087
1611, 1088, 1089,  199
1612,  199,  200, 1088
1613, 1089, 1090,  198
1614,  198,  199, 1089
1615, 1090, 1091,  197
1616,  197,  198, 1090
1617, 1091, 1092,  196
1618,  196,  197, 1091
1619, 1092, 1093,  195
1620,  195,  196, 1092
1621, 1093, 1094,  194
1622,  194,  195, 1093
1623, 1094, 1095,  193
1624,  193,  194, 1094
1625, 1095, 1096,  192
1626,  192,  193, 1095
1627, 1096, 1097,  191
1628,  191,  192, 1096
1629, 1097, 1098,  190
1630,  190,  191, 1097
1631, 1098, 1099,  189
1632,  189,  190, 1098
1633, 1099, 1100,  188
1634,  188,  189, 1099
1635, 1100, 1101,  187
1636,  187,  188, 1100
1637, 1101, 1102,  186
1638,  186,  187, 1101
1639, 1102, 1103,  185
1640,  185,  186, 1102
1641, 1103, 1104,  184
1642,  184,  185, 1103
1643, 1104, 1105,  183
1644,  183,  184, 1104
1645, 1105, 1106,  182
1646,  182,  183, 1105
1647, 1106, 1107,  181
1648,  181,  182, 1106
1649, 1107, 1108,  180
1650,  180,  181, 1107
1651, 1108, 1109,  179
1652,  179,  180, 1108
1653, 1109, 1110,  178
1654,  178,  179, 1109
1655, 1110, 1111,  177
1656,  177,  178, 1110
1657, 1111, 1112,  176
1658,  176,  177, 1111
1659, 1112, 1113,  175
1660,  175,  176, 1112
1661, 1113, 1114,  174
1662,  174,  175, 1113
1663, 1114, 1115,  173
1664,  173,  174, 1114
1665, 1115, 1116,  172
1666,  172,  173, 1115
1667, 1116, 1117,  171
1668,  171,  172, 1116
1669, 1117, 1118,  170
1670,  170,  171, 1117
1671, 1118, 1119,  169
1672,  169,  170, 1118
1673, 1119, 1120,  168
1674,  168,  169, 1119
1675, 1120, 1121,  167
1676,  167,  168, 1120
1677, 1121, 1122,  166
1678,  166,  167, 1121
1679, 1122,  165,    7
1680,    7,  166, 1122
1681,    9,  213, 1123
1682, 1123,  306,    9
1683,  213,  214, 1124
1684, 1124, 1123,  213
1685,  214,  215, 1125
1686, 1125, 1124,  214
1687,  215,  216, 1126
1688, 1126, 1125,  215
1689,  216,  217, 1127
1690, 1127, 1126,  216
1691,  217,  218, 1128
1692, 1128, 1127,  217
1693,  218,  219, 1129
1694, 1129, 1128,  218
1695,  219,  220, 1130
1696, 1130, 1129,  219
1697,  220,  221, 1131
1698, 1131, 1130,  220
1699,  221,  222, 1132
1700, 1132, 1131,  221
1701,  222,  223, 1133
1702, 1133, 1132,  222
1703,  223,  224, 1134
1704, 1134, 1133,  223
1705,  224,  225, 1135
1706, 1135, 1134,  224
1707,  225,  226, 1136
1708, 1136, 1135,  225
1709,  226,  227, 1137
1710, 1137, 1136,  226
1711,  227,  228, 1138
1712, 1138, 1137,  227
1713,  228,  229, 1139
1714, 1139, 1138,  228
1715,  229,  230, 1140
1716, 1140, 1139,  229
1717,  230,  231, 1141
1718, 1141, 1140,  230
1719,  231,  232, 1142
1720, 1142, 1141,  231
1721,  232,  233, 1143
1722, 1143, 1142,  232
1723,  233,  234, 1144
1724, 1144, 1143,  233
1725,  234,  235, 1145
1726, 1145, 1144,  234
1727,  235,  236, 1146
1728, 1146, 1145,  235
1729,  236,  237, 1147
1730, 1147, 1146,  236
1731,  237,  238, 1148
1732, 1148, 1147,  237
1733,  238,  239, 1149
1734, 1149, 1148,  238
1735,  239,  240, 1150
1736, 1150, 1149,  239
1737,  240,  241, 1151
1738, 1151, 1150,  240
1739,  241,  242, 1152
1740, 1152, 1151,  241
1741,  242,  243, 1153
1742, 1153, 1152,  242
1743,  243,  244, 1154
1744, 1154, 1153,  243
1745,  244,  245, 1155
1746, 1155, 1154,  244
1747,  245,  246, 1156
1748, 1156, 1155,  245
1749,  246,  247, 1157
1750, 1157, 1156,  246
1751,  247,  248, 1158
1752, 1158, 1157,  247
1753,  248,  249, 1159
1754, 1159, 1158,  248
1755,  249,  250, 1160
1756, 1160, 1159,  249
1757,  250,  251, 1161
1758, 1161, 1160,  250
1759,  251,   10,  252
1760,  252, 1161,  251
1761,  306, 1123, 1162
1762, 1162,  305,  306
1763, 1123, 1124, 1163
1764, 1163, 1162, 1123
1765, 1124, 1125, 1164
1766, 1164, 1163, 1124
1767, 1125, 1126, 1165
1768, 1165, 1164, 1125
1769, 1126, 1127, 1166
1770, 1166, 1165, 1126
1771, 1127, 1128, 1167
1772, 1167, 1166, 1127
1773, 1128, 1129, 1168
1774, 1168, 1167, 1128
1775, 1129, 1130, 1169
1776, 1169, 1168, 1129
1777, 1130, 1131, 1170
1778, 1170, 1169, 1130
1779, 1131, 1132, 1171
1780, 1171, 1170, 1131
1781, 1132, 1133, 1172
1782, 1172, 1171, 1132
1783, 1133, 1134, 1173
1784, 1173, 1172, 1133
1785, 1134, 1135, 1174
1786, 1174, 1173, 1134
1787, 1135, 1136, 1175
1788, 1175, 1174, 1135
1789, 1136, 1137, 1176
1790, 1176, 1175, 1136
1791, 1137, 1138, 1177
1792, 1177, 1176, 1137
1793, 1138, 1139, 1178
1794, 1178, 1177, 1138
1795, 1139, 1140, 1179
1796, 1179, 1178, 1139
1797, 1140, 1141, 1180
1798, 1180, 1179, 1140
1799, 1141, 1142, 1181
1800, 1181, 1180, 1141
1801, 1142, 1143, 1182
1802, 1182, 1181, 1142
1803, 1143, 1144, 1183
1804, 1183, 1182, 1143
1805, 1144, 1145, 1184
1806, 1184, 1183, 1144
1807, 1145, 1146, 1185
1808, 1185, 1184, 1145
1809, 1146, 1147, 1186
1810, 1186, 1185, 1146
1811, 1147, 1148, 1187
1812, 1187, 1186, 1147
1813, 1148, 1149, 1188
1814, 1188, 1187, 1148
1815, 1149, 1150, 1189
1816, 1189, 1188, 1149
1817, 1150, 1151, 1190
1818, 1190, 1189, 1150
1819, 1151, 1152, 1191
1820, 1191, 1190, 1151
1821, 1152, 1153, 1192
1822, 1192, 1191, 1152
1823, 1153, 1154, 1193
1824, 1193, 1192, 1153
1825, 1154, 1155, 1194
1826, 1194, 1193, 1154
1827, 1155, 1156, 1195
1828, 1195, 1194, 1155
1829, 1156, 1157, 1196
1830, 1196, 1195, 1156
1831, 1157, 1158, 1197
1832, 1197, 1196, 1157
1833, 1158, 1159, 1198
1834, 1198, 1197, 1158
1835, 1159, 1160, 1199
1836, 1199, 1198, 1159
1837, 1160, 1161, 1200
1838, 1200, 1199, 1160
1839, 1161,  252,  253
1840,  253, 1200, 1161
1841,  305, 1162, 1201
1842, 1201,  304,  305
1843, 1162, 1163, 1202
1844, 1202, 1201, 1162
1845, 1163, 1164, 1203
1846, 1203, 1202, 1163
1847, 1164, 1165, 1204
1848, 1204, 1203, 1164
1849, 1165, 1166, 1205
1850, 1205, 1204, 1165
1851, 1166, 1167, 1206
1852, 1206, 1205, 1166
1853, 1167, 1168, 1207
1854, 1207, 1206, 1167
1855, 1168, 1169, 1208
1856, 1208, 1207, 1168
1857, 1169, 1170, 1209
1858, 1209, 1208, 1169
1859, 1170, 1171, 1210
1860, 1210, 1209, 1170
1861, 1171, 1172, 1211
1862, 1211, 1210, 1171
1863, 1172, 1173, 1212
1864, 1212, 1211, 1172
1865, 1173, 1174, 1213
1866, 1213, 1212, 1173
1867, 1174, 1175, 1214
1868, 1214, 1213, 1174
1869, 1175, 1176, 1215
1870, 1215, 1214, 1175
1871, 1176, 1177, 1216
1872, 1216, 1215, 1176
1873, 1177, 1178, 1217
1874, 1217, 1216, 1177
1875, 1178, 1179, 1218
1876, 1218, 1217, 1178
1877, 1179, 1180, 1219
1878, 1219, 1218, 1179
1879, 1180, 1181, 1220
1880, 1220, 1219, 1180
1881, 1181, 1182, 1221
1882, 1221, 1220, 1181
1883, 1182, 1183, 1222
1884, 1222, 1221, 1182
1885, 1183, 1184, 1223
1886, 1223, 1222, 1183
1887, 1184, 1185, 1224
1888, 1224, 1223, 1184
1889, 1185, 1186, 1225
1890, 1225, 1224, 1185
1891, 1186, 1187, 1226
1892, 1226, 1225, 1186
1893, 1187, 1188, 1227
1894, 1227, 1226, 1187
1895, 1188, 1189, 1228
1896, 1228, 1227, 1188
1897, 1189, 1190, 1229
1898, 1229, 1228, 1189
1899, 1190, 1191, 1230
1900, 1230, 1229, 1190
1901, 1191, 1192, 1231
1902, 1231, 1230, 1191
1903, 1192, 1193, 1232
1904, 1232, 1231, 1192
1905, 1193, 1194, 1233
1906, 1233, 1232, 1193
1907, 1194, 1195, 1234
1908, 1234, 1233, 1194
1909, 1195, 1196, 1235
1910, 1235, 1234, 1195
1911, 1196, 1197, 1236
1912, 1236, 1235, 1196
1913, 1197, 1198, 1237
1914, 1237, 1236, 1197
1915, 1198, 1199, 1238
1916, 1238, 1237, 1198
1917, 1199, 1200, 1239
1918, 1239, 1238, 1199
1919, 1200,  253,  254
1920,  254, 1239, 1200
1921,  304, 1201, 1240
1922, 1240,  303,  304
1923, 1201, 1202, 1241
1924, 1241, 1240, 1201
1925, 1202, 1203, 1242
1926, 1242, 1241, 1202
1927, 1203, 1204, 1243
1928, 1243, 1242, 1203
1929, 1204, 1205, 1244
1930, 1244, 1243, 1204
1931, 1205, 1206, 1245
1932, 1245, 1244, 1205
1933, 1206, 1207, 1246
1934, 1246, 1245, 1206
1935, 1207, 1208, 1247
1936, 1247, 1246, 1207
1937, 1208, 1209, 1248
1938, 1248, 1247, 1208
1939, 1209, 1210, 1249
1940, 1249, 1248, 1209
1941, 1210, 1211, 1250
1942, 1250, 1249, 1210
1943, 1211, 1212, 1251
1944, 1251, 1250, 1211
1945, 1212, 1213, 1252
1946, 1252, 1251, 1212
1947, 1213, 1214, 1253
1948, 1253, 1252, 1213
1949, 1214, 1215, 1254
1950, 1254, 1253, 1214
1951, 1215, 1216, 1255
1952, 1255, 1254, 1215
1953, 1216, 1217, 1256
1954, 1256, 1255, 1216
1955, 1217, 1218, 1257
1956, 1257, 1256, 1217
1957, 1218, 1219, 1258
1958, 1258, 1257, 1218
1959, 1219, 1220, 1259
1960, 1259, 1258, 1219
1961, 1220, 1221, 1260
1962, 1260, 1259, 1220
1963, 1221, 1222, 1261
1964, 1261, 1260, 1221
1965, 1222, 1223, 1262
1966, 1262, 1261, 1222
1967, 1223, 1224, 1263
1968, 1263, 1262, 1223
1969, 1224, 1225, 1264
1970, 1264, 1263, 1224
1971, 1225, 1226, 1265
1972, 1265, 1264, 1225
1973, 1226, 1227, 1266
1974, 1266, 1265, 1226
1975, 1227, 1228, 1267
1976, 1267, 1266, 1227
1977, 1228, 1229, 1268
1978, 1268, 1267, 1228
1979, 1229, 1230, 1269
1980, 1269, 1268, 1229
1981, 1230, 1231, 1270
1982, 1270, 1269, 1230
1983, 1231, 1232, 1271
1984, 1271, 1270, 1231
1985, 1232, 1233, 1272
1986, 1272, 1271, 1232
1987, 1233, 1234, 1273
1988, 1273, 1272, 1233
1989, 1234, 1235, 1274
1990, 1274, 1273, 1234
1991, 1235, 1236, 1275
1992, 1275, 1274, 1235
1993, 1236, 1237, 1276
1994, 1276, 1275, 1236
1995, 1237, 1238, 1277
1996, 1277, 1276, 1237
1997, 1238, 1239, 1278
1998, 1278, 1277, 1238
1999, 1239,  254,  255
2000,  255, 1278, 1239
2001,  303, 1240, 1279
2002, 1279,  302,  303
2003, 1240, 1241, 1280
2004, 1280, 1279, 1240
2005, 1241, 1242, 1281
2006, 1281, 1280, 1241
2007, 1242, 1243, 1282
2008, 1282, 1281, 1242
2009, 1243, 1244, 1283
2010, 1283, 1282, 1243
2011, 1244, 1245, 1284
2012, 1284, 1283, 1244
2013, 1245, 1246, 1285
2014, 1285, 1284, 1245
2015, 1246, 1247, 1286
2016, 1286, 1285, 1246
2017, 1247, 1248, 1287
2018, 1287, 1286, 1247
2019, 1248, 1249, 1288
2020, 1288, 1287, 1248
2021, 1249, 1250, 1289
2022, 1289, 1288, 1249
2023, 1250, 1251, 1290
2024, 1290, 1289, 1250
2025, 1251, 1252, 1291
2026, 1291, 1290, 1251
2027, 1252, 1253, 1292
2028, 1292, 1291, 1252
2029, 1253, 1254, 1293
2030, 1293, 1292, 1253
2031, 1254, 1255, 1294
2032, 1294, 1293, 1254
2033, 1255, 1256, 1295
2034, 1295, 1294, 1255
2035, 1256, 1257, 1296
2036, 1296, 1295, 1256
2037, 1257, 1258, 1297
2038, 1297, 1296, 1257
2039, 1258, 1259, 1298
2040, 1298, 1297, 1258
2041, 1259, 1260, 1299
2042, 1299, 1298, 1259
2043, 1260, 1261, 1300
2044, 1300, 1299, 1260
2045, 1261, 1262, 1301
2046, 1301, 1300, 1261
2047, 1262, 1263, 1302
2048, 1302, 1301, 1262
2049, 1263, 1264, 1303
2050, 1303, 1302, 1263
2051, 1264, 1265, 1304
2052, 1304, 1303, 1264
2053, 1265, 1266, 1305
2054, 1305, 1304, 1265
2055, 1266, 1267, 1306
2056, 1306, 1305, 1266
2057, 1267, 1268, 1307
2058, 1307, 1306, 1267
2059, 1268, 1269, 1308
2060, 1308, 1307, 1268
2061, 1269, 1270, 1309
2062, 1309, 1308, 1269
2063, 1270, 1271, 1310
2064, 1310, 1309, 1270
2065, 1271, 1272, 1311
2066, 1311, 1310, 1271
2067, 1272, 1273, 1312
2068, 1312, 1311, 1272
2069, 1273, 1274, 1313
2070, 1313, 1312, 1273
2071, 1274, 1275, 1314
2072, 1314, 1313, 1274
2073, 1275, 1276, 1315
2074, 1315, 1314, 1275
2075, 1276, 1277, 1316
2076, 1316, 1315, 1276
2077, 1277, 1278, 1317
2078, 1317, 1316, 1277
2079, 1278,  255,  256
2080,  256, 1317, 1278
2081,  302, 1279, 1318
2082, 1318,  301,  302
2083, 1279, 1280, 1319
2084, 1319, 1318, 1279
2085, 1280, 1281, 1320
2086, 1320, 1319, 1280
2087, 1281, 1282, 1321
2088, 1321, 1320, 1281
2089, 1282, 1283, 1322
2090, 1322, 1321, 1282
2091, 1283, 1284, 1323
2092, 1323, 1322, 1283
2093, 1284, 1285, 1324
2094, 1324, 1323, 1284
2095, 1285, 1286, 1325
2096, 1325, 1324, 1285
2097, 1286, 1287, 1326
2098, 1326, 1325, 1286
2099, 1287, 1288, 1327
2100, 1327, 1326, 1287
2101, 1288, 1289, 1328
2102, 1328, 1327, 1288
2103, 1289, 1290, 1329
2104, 1329, 1328, 1289
2105, 1290, 1291, 1330
2106, 1330, 1329, 1290
2107, 1291, 1292, 1331
2108, 1331, 1330, 1291
2109, 1292, 1293, 1332
2110, 1332, 1331, 1292
2111, 1293, 1294, 1333
2112, 1333, 1332, 1293
2113, 1294, 1295, 1334
2114, 1334, 1333, 1294
2115, 1295, 1296, 1335
2116, 1335, 1334, 1295
2117, 1296, 1297, 1336
2118, 1336, 1335, 1296
2119, 1297, 1298, 1337
2120, 1337, 1336, 1297
2121, 1298, 1299, 1338
2122, 1338, 1337, 1298
2123, 1299, 1300, 1339
2124, 1339, 1338, 1299
2125, 1300, 1301, 1340
2126, 1340, 1339, 1300
2127, 1301, 1302, 1341
2128, 1341, 1340, 1301
2129, 1302, 1303, 1342
2130, 1342, 1341, 1302
2131, 1303, 1304, 1343
2132, 1343, 1342, 1303
2133, 1304, 1305, 1344
2134, 1344, 1343, 1304
2135, 1305, 1306, 1345
2136, 1345, 1344, 1305
2137, 1306, 1307, 1346
2138, 1346, 1345, 1306
2139, 1307, 1308, 1347
2140, 1347, 1346, 1307
2141, 1308, 1309, 1348
2142, 1348, 1347, 1308
2143, 1309, 1310, 1349
2144, 1349, 1348, 1309
2145, 1310, 1311, 1350
2146, 1350, 1349, 1310
2147, 1311, 1312, 1351
2148, 1351, 1350, 1311
2149, 1312, 1313, 1352
2150, 1352, 1351, 1312
2151, 1313, 1314, 1353
2152, 1353, 1352, 1313
2153, 1314, 1315, 1354
2154, 1354, 1353, 1314
2155, 1315, 1316, 1355
2156, 1355, 1354, 1315
2157, 1316, 1317, 1356
2158, 1356, 1355, 1316
2159, 1317,  256,  257
2160,  257, 1356, 1317
2161,  301, 1318, 1357
2162, 1357,  300,  301
2163, 1318, 1319, 1358
2164, 1358, 1357, 1318
2165, 1319, 1320, 1359
2166, 1359, 1358, 1319
2167, 1320, 1321, 1360
2168, 1360, 1359, 1320
2169, 1321, 1322, 1361
2170, 1361, 1360, 1321
2171, 1322, 1323, 1362
2172, 1362, 1361, 1322
2173, 1323, 1324, 1363
2174, 1363, 1362, 1323
2175, 1324, 1325, 1364
2176, 1364, 1363, 1324
2177, 1325, 1326, 1365
2178, 1365, 1364, 1325
2179, 1326, 1327, 1366
2180, 1366, 1365, 1326
2181, 1327, 1328, 1367
2182, 1367, 1366, 1327
2183, 1328, 1329, 1368
2184, 1368, 1367, 1328
2185, 1329, 1330, 1369
2186, 1369, 1368, 1329
2187, 1330, 1331, 1370
2188, 1370, 1369, 1330
2189, 1331, 1332, 1371
2190, 1371, 1370, 1331
2191, 1332, 1333, 1372
2192, 1372, 1371, 1332
2193, 1333, 1334, 1373
2194, 1373, 1372, 1333
2195, 1334, 1335, 1374
2196, 1374, 1373, 1334
2197, 1335, 1336, 1375
2198, 1375, 1374, 1335
2199, 1336, 1337, 1376
2200, 1376, 1375, 1336
2201, 1337, 1338, 1377
2202, 1377, 1376, 1337
2203, 1338, 1339, 1378
2204, 1378, 1377, 1338
2205, 1339, 1340, 1379
2206, 1379, 1378, 1339
2207, 1340, 1341, 1380
2208, 1380, 1379, 1340
2209, 1341, 1342, 1381
2210, 1381, 1380, 1341
2211, 1342, 1343, 1382
2212, 1382, 1381, 1342
2213, 1343, 1344, 1383
2214, 1383, 1382, 1343
2215, 1344, 1345, 1384
2216, 1384, 1383, 1344
2217, 1345, 1346, 1385
2218, 1385, 1384, 1345
2219, 1346, 1347, 1386
2220, 1386, 1385, 1346
2221, 1347, 1348, 1387
2222, 1387, 1386, 1347
2223, 1348, 1349, 1388
2224, 1388, 1387, 1348
2225, 1349, 1350, 1389
2226, 1389, 1388, 1349
2227, 1350, 1351, 1390
2228, 1390, 1389, 1350
2229, 1351, 1352, 1391
2230, 1391, 1390, 1351
2231, 1352, 1353, 1392
2232, 1392, 1391, 1352
2233, 1353, 1354, 1393
2234, 1393, 1392, 1353
2235, 1354, 1355, 1394
2236, 1394, 1393, 1354
2237, 1355, 1356, 1395
2238, 1395, 1394, 1355
2239, 1356,  257,  258
2240,  258, 1395, 1356
2241,  300, 1357, 1396
2242, 1396,  299,  300
2243, 1357, 1358, 1397
2244, 1397, 1396, 1357
2245, 1358, 1359, 1398
2246, 1398, 1397, 1358
2247, 1359, 1360, 1399
2248, 1399, 1398, 1359
2249, 1360, 1361, 1400
2250, 1400, 1399, 1360
2251, 1361, 1362, 1401
2252, 1401, 1400, 1361
2253, 1362, 1363, 1402
2254, 1402, 1401, 1362
2255, 1363, 1364, 1403
2256, 1403, 1402, 1363
2257, 1364, 1365, 1404
2258, 1404, 1403, 1364
2259, 1365, 1366, 1405
2260, 1405, 1404, 1365
2261, 1366, 1367, 1406
2262, 1406, 1405, 1366
2263, 1367, 1368, 1407
2264, 1407, 1406, 1367
2265, 1368, 1369, 1408
2266, 1408, 1407, 1368
2267, 1369, 1370, 1409
2268, 1409, 1408, 1369
2269, 1370, 1371, 1410
2270, 1410, 1409, 1370
2271, 1371, 1372, 1411
2272, 1411, 1410, 1371
2273, 1372, 1373, 1412
2274, 1412, 1411, 1372
2275, 1373, 1374, 1413
2276, 1413, 1412, 1373
2277, 1374, 1375, 1414
2278, 1414, 1413, 1374
2279, 1375, 1376, 1415
2280, 1415, 1414, 1375
2281, 1376, 1377, 1416
2282, 1416, 1415, 1376
2283, 1377, 1378, 1417
2284, 1417, 1416, 1377
2285, 1378, 1379, 1418
2286, 1418, 1417, 1378
2287, 1379, 1380, 1419
2288, 1419, 1418, 1379
2289, 1380, 1381, 1420
2290, 1420, 1419, 1380
2291, 1381, 1382, 1421
2292, 1421, 1420, 1381
2293, 1382, 1383, 1422
2294, 1422, 1421, 1382
2295, 1383, 1384, 1423
2296, 1423, 1422, 1383
2297, 1384, 1385, 1424
2298, 1424, 1423, 1384
2299, 1385, 1386, 1425
2300, 1425, 1424, 1385
2301, 1386, 1387, 1426
2302, 1426, 1425, 1386
2303, 1387, 1388, 1427
2304, 1427, 1426, 1387
2305, 1388, 1389, 1428
2306, 1428, 1427, 1388
2307, 1389, 1390, 1429
2308, 1429, 1428, 1389
2309, 1390, 1391, 1430
2310, 1430, 1429, 1390
2311, 1391, 1392, 1431
2312, 1431, 1430, 1391
2313, 1392, 1393, 1432
2314, 1432, 1431, 1392
2315, 1393, 1394, 1433
2316, 1433, 1432, 1393
2317, 1394, 1395, 1434
2318, 1434, 1433, 1394
2319, 1395,  258,  259
2320,  259, 1434, 1395
2321,  299, 1396,  298
2322,  298,   12,  299
2323, 1396, 1397,  297
2324,  297,  298, 1396
2325, 1397, 1398,  296
2326,  296,  297, 1397
2327, 1398, 1399,  295
2328,  295,  296, 1398
2329, 1399, 1400,  294
2330,  294,  295, 1399
2331, 1400, 1401,  293
2332,  293,  294, 1400
2333, 1401, 1402,  292
2334,  292,  293, 1401
2335, 1402, 1403,  291
2336,  291,  292, 1402
2337, 1403, 1404,  290
2338,  290,  291, 1403
2339, 1404, 1405,  289
2340,  289,  290, 1404
2341, 1405, 1406,  288
2342,  288,  289, 1405
2343, 1406, 1407,  287
2344,  287,  288, 1406
2345, 1407, 1408,  286
2346,  286,  287, 1407
2347, 1408, 1409,  285
2348,  285,  286, 1408
2349, 1409, 1410,  284
2350,  284,  285, 1409
2351, 1410, 1411,  283
2352,  283,  284, 1410
2353, 1411, 1412,  282
2354,  282,  283, 1411
2355, 1412, 1413,  281
2356,  281,  282, 1412
2357, 1413, 1414,  280
2358,  280,  281, 1413
2359, 1414, 1415,  279
2360,  279,  280, 1414
2361, 1415, 1416,  278
2362,  278,  279, 1415
2363, 1416, 1417,  277
2364,  277,  278, 1416
2365, 1417, 1418,  276
2366,  276,  277, 1417
2367, 1418, 1419,  275
2368,  275,  276, 1418
2369, 1419, 1420,  274
2370,  274,  275, 1419
2371, 1420, 1421,  273
2372,  273,  274, 1420
2373, 1421, 1422,  272
2374,  272,  273, 1421
2375, 1422, 1423,  271
2376,  271,  272, 1422
2377, 1423, 1424,  270
2378,  270,  271, 1423
2379, 1424, 1425,  269
2380,  269,  270, 1424
2381, 1425, 1426,  268
2382,  268,  269, 1425
2383, 1426, 1427,  267
2384,  267,  268, 1426
2385, 1427, 1428,  266
2386,  266,  267, 1427
2387, 1428, 1429,  265
2388,  265,  266, 1428
2389, 1429, 1430,  264
2390,  264,  265, 1429
2391, 1430, 1431,  263
2392,  263,  264, 1430
2393, 1431, 1432,  262
2394,  262,  263, 1431
2395, 1432, 1433,  261
2396,  261,  262, 1432
2397, 1433, 1434,  260
2398,  260,  261, 1433
2399, 1434,  259,   11
2400,   11,  260, 1434
2401,   13,  307, 1435
2402, 1435,  359,   13
2403,  307,  308, 1436
2404, 1436, 1435,  307
2405,  308,  309, 1437
2406, 1437, 1436,  308
2407,  309,  310, 1438
2408, 1438, 1437,  309
2409,  310,  311, 1439
2410, 1439, 1438,  310
2411,  311,  312, 1440
2412, 1440, 1439,  311
2413,  312,  313, 1441
2414, 1441, 1440,  312
2415,  313,  314, 1442
2416, 1442, 1441,  313
2417,  314,  315, 1443
2418, 1443, 1442,  314
2419,  315,  316, 1444
2420, 1444, 1443,  315
2421,  316,  317, 1445
2422, 1445, 1444,  316
2423,  317,  318, 1446
2424, 1446, 1445,  317
2425,  318,  319, 1447
2426, 1447, 1446,  318
2427,  319,  320, 1448
2428, 1448, 1447,  319
2429,  320,  321, 1449
2430, 1449, 1448,  320
2431,  321,  322, 1450
2432, 1450, 1449,  321
2433,  322,  323, 1451
2434, 1451, 1450,  322
2435,  323,  324, 1452
2436, 1452, 1451,  323
2437,  324,  325, 1453
2438, 1453, 1452,  324
2439,  325,  326, 1454
2440, 1454, 1453,  325
2441,  326,  327, 1455
2442, 1455, 1454,  326
2443,  327,  328, 1456
2444, 1456, 1455,  327
2445,  328,  329, 1457
2446, 1457, 1456,  328
2447,  329,  330, 1458
2448, 1458, 1457,  329
2449,  330,  331, 1459
2450, 1459, 1458,  330
2451,  331,  332, 1460
2452, 1460, 1459,  331
2453,  332,  333, 1461
2454, 1461, 1460,  332
2455,  333,  334, 1462
2456, 1462, 1461,  333
2457,  334,  335, 1463
2458, 1463, 1462,  334
2459,  335,  336, 1464
2460, 1464, 1463,  335
2461,  336,  337, 1465
2462, 1465, 1464,  336
2463,  337,  338, 1466
2464, 1466, 1465,  337
2465,  338,  339, 1467
2466, 1467, 1466,  338
2467,  339,  340, 1468
2468, 1468, 1467,  339
2469,  340,  341, 1469
2470, 1469, 1468,  340
2471,  341,  342, 1470
2472, 1470, 1469,  341
2473,  342,  343, 1471
2474, 1471, 1470,  342
2475,  343,  344, 1472
2476, 1472, 1471,  343
2477,  344,  345, 1473
2478, 1473, 1472,  344
2479,  345,   14,  346
2480,  346, 1473,  345
2481,  359, 1435, 1474
2482, 1474,  358,  359
2483, 1435, 1436, 1475
2484, 1475, 1474, 1435
2485, 1436, 1437, 1476
2486, 1476, 1475, 1436
2487, 1437, 1438, 1477
2488, 1477, 1476, 1437
2489, 1438, 1439, 1478
2490, 1478, 1477, 1438
2491, 1439, 1440, 1479
2492, 1479, 1478, 1439
2493, 1440, 1441, 1480
2494, 1480, 1479, 1440
2495, 1441, 1442, 1481
2496, 1481, 1480, 1441
2497, 1442, 1443, 1482
2498, 1482, 1481, 1442
2499, 1443, 1444, 1483
2500, 1483, 1482, 1443
2501, 1444, 1445, 1484
2502, 1484, 1483, 1444
2503, 1445, 1446, 1485
2504, 1485, 1484, 1445
2505, 1446, 1447, 1486
2506, 1486, 1485, 1446
2507, 1447, 1448, 1487
2508, 1487, 1486, 1447
2509, 1448, 1449, 1488
2510, 1488, 1487, 1448
2511, 1449, 1450, 1489
2512, 1489, 1488, 1449
2513, 1450, 1451, 1490
2514, 1490, 1489, 1450
2515, 1451, 1452, 1491
2516, 1491, 1490, 1451
2517, 1452, 1453, 1492
2518, 1492, 1491, 1452
2519, 1453, 1454, 1493
2520, 1493, 1492, 1453
2521, 1454, 1455, 1494
2522, 1494, 1493, 1454
2523, 1455, 1456, 1495
2524, 1495, 1494, 1455
2525, 1456, 1457, 1496
2526, 1496, 1495, 1456
2527, 1457, 1458, 1497
2528, 1497, 1496, 1457
2529, 1458, 1459, 1498
2530, 1498, 1497, 1458
2531, 1459, 1460, 1499
2532, 1499, 1498, 1459
2533, 1460, 1461, 1500
2534, 1500, 1499, 1460
2535, 1461, 1462, 1501
2536, 1501, 1500, 1461
2537, 1462, 1463, 1502
2538, 1502, 1501, 1462
2539, 1463, 1464, 1503
2540, 1503, 1502, 1463
2541, 1464, 1465, 1504
2542, 1504, 1503, 1464
2543, 1465, 1466, 1505
2544, 1505, 1504, 1465
2545, 1466, 1467, 1506
2546, 1506, 1505, 1466
2547, 1467, 1468, 1507
2548, 1507, 1506, 1467
2549, 1468, 1469, 1508
2550, 1508, 1507, 1468
2551, 1469, 1470, 1509
2552, 1509, 1508, 1469
2553, 1470, 1471, 1510
2554, 1510, 1509, 1470
2555, 1471, 1472, 1511
2556, 1511, 1510, 1471
2557, 1472, 1473, 1512
2558, 1512, 1511, 1472
2559, 1473,  346,  347
2560,  347, 1512, 1473
2561,  358, 1474, 1513
2562, 1513,  357,  358
2563, 1474, 1475, 1514
2564, 1514, 1513, 1474
2565, 1475, 1476, 1515
2566, 1515, 1514, 1475
2567, 1476, 1477, 1516
2568, 1516, 1515, 1476
2569, 1477, 1478, 1517
2570, 1517, 1516, 1477
2571, 1478, 1479, 1518
2572, 1518, 1517, 1478
2573, 1479, 1480, 1519
2574, 1519, 1518, 1479
2575, 1480, 1481, 1520
2576, 1520, 1519, 1480
2577, 1481, 1482, 1521
2578, 1521, 1520, 1481
2579, 1482, 1483, 1522
2580, 1522, 1521, 1482
2581, 1483, 1484, 1523
2582, 1523, 1522, 1483
2583, 1484, 1485, 1524
2584, 1524, 1523, 1484
2585, 1485, 1486, 1525
2586, 1525, 1524, 1485
2587, 1486, 1487, 1526
2588, 1526, 1525, 1486
2589, 1487, 1488, 1527
2590, 1527, 1526, 1487
2591, 1488, 1489, 1528
2592, 1528, 1527, 1488
2593, 1489, 1490, 1529
2594, 1529, 1528, 1489
2595, 1490, 1491, 1530
2596, 1530, 1529, 1490
2597, 1491, 1492, 1531
2598, 1531, 1530, 1491
2599, 1492, 1493, 1532
2600, 1532, 1531, 1492
2601, 1493, 1494, 1533
2602, 1533, 1532, 1493
2603, 1494, 1495, 1534
2604, 1534, 1533, 1494
2605, 1495, 1496, 1535
2606, 1535, 1534, 1495
2607, 1496, 1497, 1536
2608, 1536, 1535, 1496
2609, 1497, 1498, 1537
2610, 1537, 1536, 1497
2611, 1498, 1499, 1538
2612, 1538, 1537, 1498
2613, 1499, 1500, 1539
2614, 1539, 1538, 1499
2615, 1500, 1501, 1540
2616, 1540, 1539, 1500
2617, 1501, 1502, 1541
2618, 1541, 1540, 1501
2619, 1502, 1503, 1542
2620, 1542, 1541, 1502
2621, 1503, 1504, 1543
2622, 1543, 1542, 1503
2623, 1504, 1505, 1544
2624, 1544, 1543, 1504
2625, 1505, 1506, 1545
2626, 1545, 1544, 1505
2627, 1506, 1507, 1546
2628, 1546, 1545, 1506
2629, 1507, 1508, 1547
2630, 1547, 1546, 1507
2631, 1508, 1509, 1548
2632, 1548, 1547, 1508
2633, 1509, 1510, 1549
2634, 1549, 1548, 1509
2635, 1510, 1511, 1550
2636, 1550, 1549, 1510
2637, 1511, 1512, 1551
2638, 1551, 1550, 1511
2639, 1512,  347,  348
2640,  348, 1551, 1512
2641,  357, 1513, 1552
2642, 1552,  356,  357
2643, 1513, 1514, 1553
2644, 1553, 1552, 1513
2645, 1514, 1515, 1554
2646, 1554, 1553, 1514
2647, 1515, 1516, 1555
2648, 1555, 1554, 1515
2649, 1516, 1517, 1556
2650, 1556, 1555, 1516
2651, 1517, 1518, 1557
2652, 1557, 1556, 1517
2653, 1518, 1519, 1558
2654, 1558, 1557, 1518
2655, 1519, 1520, 1559
2656, 1559, 1558, 1519
2657, 1520, 1521, 1560
2658, 1560, 1559, 1520
2659, 1521, 1522, 1561
2660, 1561, 1560, 1521
2661, 1522, 1523, 1562
2662, 1562, 1561, 1522
2663, 1523, 1524, 1563
2664, 1563, 1562, 1523
2665, 1524, 1525, 1564
2666, 1564, 1563, 1524
2667, 1525, 1526, 1565
2668, 1565, 1564, 1525
2669, 1526, 1527, 1566
2670, 1566, 1565, 1526
2671, 1527, 1528, 1567
2672, 1567, 1566, 1527
2673, 1528, 1529, 1568
2674, 1568, 1567, 1528
2675, 1529, 1530, 1569
2676, 1569, 1568, 1529
2677, 1530, 1531, 1570
2678, 1570, 1569, 1530
2679, 1531, 1532, 1571
2680, 1571, 1570, 1531
2681, 1532, 1533, 1572
2682, 1572, 1571, 1532
2683, 1533, 1534, 1573
2684, 1573, 1572, 1533
2685, 1534, 1535, 1574
2686, 1574, 1573, 1534
2687, 1535, 1536, 1575
2688, 1575, 1574, 1535
2689, 1536, 1537, 1576
2690, 1576, 1575, 1536
2691, 1537, 1538, 1577
2692, 1577, 1576, 1537
2693, 1538, 1539, 1578
2694, 1578, 1577, 1538
2695, 1539, 1540, 1579
2696, 1579, 1578, 1539
2697, 1540, 1541, 1580
2698, 1580, 1579, 1540
2699, 1541, 1542, 1581
2700, 1581, 1580, 1541
2701, 1542, 1543, 1582
2702, 1582, 1581, 1542
2703, 1543, 1544, 1583
2704, 1583, 1582, 1543
2705, 1544, 1545, 1584
2706, 1584, 1583, 1544
2707, 1545, 1546, 1585
2708, 1585, 1584, 1545
2709, 1546, 1547, 1586
2710, 1586, 1585, 1546
2711, 1547, 1548, 1587
2712, 1587, 1586, 1547
2713, 1548, 1549, 1588
2714, 1588, 1587, 1548
2715, 1549, 1550, 1589
2716, 1589, 1588, 1549
2717, 1550, 1551, 1590
2718, 1590, 1589, 1550
2719, 1551,  348,  349
2720,  349, 1590, 1551
2721,  356, 1552, 1591
2722, 1591,  355,  356
2723, 1552, 1553, 1592
2724, 1592, 1591, 1552
2725, 1553, 1554, 1593
2726, 1593, 1592, 1553
2727, 1554, 1555, 1594
2728, 1594, 1593, 1554
2729, 1555, 1556, 1595
2730, 1595, 1594, 1555
2731, 1556, 1557, 1596
2732, 1596, 1595, 1556
2733, 1557, 1558, 1597
2734, 1597, 1596, 1557
2735, 1558, 1559, 1598
2736, 1598, 1597, 1558
2737, 1559, 1560, 1599
2738, 1599, 1598, 1559
2739, 1560, 1561, 1600
2740, 1600, 1599, 1560
2741, 1561, 1562, 1601
2742, 1601, 1600, 1561
2743, 1562, 1563, 1602
2744, 1602, 1601, 1562
2745, 1563, 1564, 1603
2746, 1603, 1602, 1563
2747, 1564, 1565, 1604
2748, 1604, 1603, 1564
2749, 1565, 1566, 1605
2750, 1605, 1604, 1565
2751, 1566, 1567, 1606
2752, 1606, 1605, 1566
2753, 1567, 1568, 1607
2754, 1607, 1606, 1567
2755, 1568, 1569, 1608
2756, 1608, 1607, 1568
2757, 1569, 1570, 1609
2758, 1609, 1608, 1569
2759, 1570, 1571, 1610
2760, 1610, 1609, 1570
2761, 1571, 1572, 1611
2762, 1611, 1610, 1571
2763, 1572, 1573, 1612
2764, 1612, 1611, 1572
2765, 1573, 1574, 1613
2766, 1613, 1612, 1573
2767, 1574, 1575, 1614
2768, 1614, 1613, 1574
2769, 1575, 1576, 1615
2770, 1615, 1614, 1575
2771, 1576, 1577, 1616
2772, 1616, 1615, 1576
2773, 1577, 1578, 1617
2774, 1617, 1616, 1577
2775, 1578, 1579, 1618
2776, 1618, 1617, 1578
2777, 1579, 1580, 1619
2778, 1619, 1618, 1579
2779, 1580, 1581, 1620
2780, 1620, 1619, 1580
2781, 1581, 1582, 1621
2782, 1621, 1620, 1581
2783, 1582, 1583, 1622
2784, 1622, 1621, 1582
2785, 1583, 1584, 1623
2786, 1623, 1622, 1583
2787, 1584, 1585, 1624
2788, 1624, 1623, 1584
2789, 1585, 1586, 1625
2790, 1625, 1624, 1585
2791, 1586, 1587, 1626
2792, 1626, 1625, 1586
2793, 1587, 1588, 1627
2794, 1627, 1626, 1587
2795, 1588, 1589, 1628
2796, 1628, 1627, 1588
2797, 1589, 1590, 1629
2798, 1629, 1628, 1589
2799, 1590,  349,  350
2800,  350, 1629, 1590
2801,  355, 1591, 1630
2802, 1630,  354,  355
2803, 1591, 1592, 1631
2804, 1631, 1630, 1591
2805, 1592, 1593, 1632
2806, 1632, 1631, 1592
2807, 1593, 1594, 1633
2808, 1633, 1632, 1593
2809, 1594, 1595, 1634
2810, 1634, 1633, 1594
2811, 1595, 1596, 1635
2812, 1635, 1634, 1595
2813, 1596, 1597, 1636
2814, 1636, 1635, 1596
2815, 1597, 1598, 1637
2816, 1637, 1636, 1597
2817, 1598, 1599, 1638
2818, 1638, 1637, 1598
2819, 1599, 1600, 1639
2820, 1639, 1638, 1599
2821, 1600, 1601, 1640
2822, 1640, 1639, 1600
2823, 1601, 1602, 1641
2824, 1641, 1640, 1601
2825, 1602, 1603, 1642
2826, 1642, 1641, 1602
2827, 1603, 1604, 1643
2828, 1643, 1642, 1603
2829, 1604, 1605, 1644
2830, 1644, 1643, 1604
2831, 1605, 1606, 1645
2832, 1645, 1644, 1605
2833, 1606, 1607, 1646
2834, 1646, 1645, 1606
2835, 1607, 1608, 1647
2836, 1647, 1646, 1607
2837, 1608, 1609, 1648
2838, 1648, 1647, 1608
2839, 1609, 1610, 1649
2840, 1649, 1648, 1609
2841, 1610, 1611, 1650
2842, 1650, 1649, 1610
2843, 1611, 1612, 1651
2844, 1651, 1650, 1611
2845, 1612, 1613, 1652
2846, 1652, 1651, 1612
2847, 1613, 1614, 1653
2848, 1653, 1652, 1613
2849, 1614, 1615, 1654
2850, 1654, 1653, 1614
2851, 1615, 1616, 1655
2852, 1655, 1654, 1615
2853, 1616, 1617, 1656
2854, 1656, 1655, 1616
2855, 1617, 1618, 1657
2856, 1657, 1656, 1617
2857, 1618, 1619, 1658
2858, 1658, 1657, 1618
2859, 1619, 1620, 1659
2860, 1659, 1658, 1619
2861, 1620, 1621, 1660
2862, 1660, 1659, 1620
2863, 1621, 1622, 1661
2864, 1661, 1660, 1621
2865, 1622, 1623, 1662
2866, 1662, 1661, 1622
2867, 1623, 1624, 1663
2868, 1663, 1662, 1623
2869, 1624, 1625, 1664
2870, 1664, 1663, 1624
2871, 1625, 1626, 1665
2872, 1665, 1664, 1625
2873, 1626, 1627, 1666
2874, 1666, 1665, 1626
2875, 1627, 1628, 1667
2876, 1667, 1666, 1627
2877, 1628, 1629, 1668
2878, 1668, 1667, 1628
2879, 1629,  350,  351
2880,  351, 1668, 1629
2881,  354, 1630, 1669
2882, 1669,  353,  354
2883, 1630, 1631, 1670
2884, 1670, 1669, 1630
2885, 1631, 1632, 1671
2886, 1671, 1670, 1631
2887, 1632, 1633, 1672
2888, 1672, 1671, 1632
2889, 1633, 1634, 1673
2890, 1673, 1672, 1633
2891, 1634, 1635, 1674
2892, 1674, 1673, 1634
2893, 1635, 1636, 1675
2894, 1675, 1674, 1635
2895, 1636, 1637, 1676
2896, 1676, 1675, 1636
2897, 1637, 1638, 1677
2898, 1677, 1676, 1637
2899, 1638, 1639, 1678
2900, 1678, 1677, 1638
2901, 1639, 1640, 1679
2902, 1679, 1678, 1639
2903, 1640, 1641, 1680
2904, 1680, 1679, 1640
2905, 1641, 1642, 1681
2906, 1681, 1680, 1641
2907, 1642, 1643, 1682
2908, 1682, 1681, 1642
2909, 1643, 1644, 1683
2910, 1683, 1682, 1643
2911, 1644, 1645, 1684
2912, 1684, 1683, 1644
2913, 1645, 1646, 1685
2914, 1685, 1684, 1645
2915, 1646, 1647, 1686
2916, 1686, 1685, 1646
2917, 1647, 1648, 1687
2918, 1687, 1686, 1647
2919, 1648, 1649, 1688
2920, 1688, 1687, 1648
2921, 1649, 1650, 1689
2922, 1689, 1688, 1649
2923, 1650, 1651, 1690
2924, 1690, 1689, 1650
2925, 1651, 1652, 1691
2926, 1691, 1690, 1651
2927, 1652, 1653, 1692
2928, 1692, 1691, 1652
2929, 1653, 1654, 1693
2930, 1693, 1692, 1653
2931, 1654, 1655, 1694
2932, 1694, 1693, 1654
2933, 1655, 1656, 1695
2934, 1695, 1694, 1655
2935, 1656, 1657, 1696
2936, 1696, 1695, 1656
2937, 1657, 1658, 1697
2938, 1697, 1696, 1657
2939, 1658, 1659, 1698
2940, 1698, 1697, 1658
2941, 1659, 1660, 1699
2942, 1699, 1698, 1659
2943, 1660, 1661, 1700
2944, 1700, 1699, 1660
2945, 1661, 1662, 1701
2946, 1701, 1700, 1661
2947, 1662, 1663, 1702
2948, 1702, 1701, 1662
2949, 1663, 1664, 1703
2950, 1703, 1702, 1663
2951, 1664, 1665, 1704
2952, 1704, 1703, 1664
2953, 1665, 1666, 1705
2954, 1705, 1704, 1665
2955, 1666, 1667, 1706
2956, 1706, 1705, 1666
2957, 1667, 1668, 1707
2958, 1707, 1706, 1667
2959, 1668,  351,  352
2960,  352, 1707, 1668
2961,  353, 1669,  260
2962,  260,   11,  353
2963, 1669, 1670,  261
2964,  261,  260, 1669
2965, 1670, 1671,  262
2966,  262,  261, 1670
2967, 1671, 1672,  263
2968,  263,  262, 1671
2969, 1672, 1673,  264
2970,  264,  263, 1672
2971, 1673, 1674,  265
2972,  265,  264, 1673
2973, 1674, 1675,  266
2974,  266,  265, 1674
2975, 1675, 1676,  267
2976,  267,  266, 1675
2977, 1676, 1677,  268
2978,  268,  267, 1676
2979, 1677, 1678,  269
2980,  269,  268, 1677
2981, 1678, 1679,  270
2982,  270,  269, 1678
2983, 1679, 1680,  271
2984,  271,  270, 1679
2985, 1680, 1681,  272
2986,  272,  271, 1680
2987, 1681, 1682,  273
2988,  273,  272, 1681
2989, 1682, 1683,  274
2990,  274,  273, 1682
2991, 1683, 1684,  275
2992,  275,  274, 1683
2993, 1684, 1685,  276
2994,  276,  275, 1684
2995, 1685, 1686,  277
2996,  277,  276, 1685
2997, 1686, 1687,  278
2998,  278,  277, 1686
2999, 1687, 1688,  279
3000,  279,  278, 1687
3001, 1688, 1689,  280
3002,  280,  279, 1688
3003, 1689, 1690,  281
3004,  281,  280, 1689
3005, 1690, 1691,  282
3006,  282,  281, 1690
3007, 1691, 1692,  283
3008,  283,  282, 1691
3009, 1692, 1693,  284
3010,  284,  283, 1692
3011, 1693, 1694,  285
3012,  285,  284, 1693
3013, 1694, 1695,  286
3014,  286,  285, 1694
3015, 1695, 1696,  287
3016,  287,  286, 1695
3017, 1696, 1697,  288
3018,  288,  287, 1696
3019, 1697, 1698,  289
3020,  289,  288, 1697
3021, 1698, 1699,  290
3022,  290,  289, 1698
3023, 1699, 1700,  291
3024,  291,  290, 1699
3025, 1700, 1701,  292
3026,  292,  291, 1700
3027, 1701, 1702,  293
3028,  293,  292, 1701
3029, 1702, 1703,  294
3030,  294,  293, 1702
3031, 1703, 1704,  295
3032,  295,  294, 1703
3033, 1704, 1705,  296
3034,  296,  295, 1704
3035, 1705, 1706,  297
3036,  297,  296, 1705
3037, 1706, 1707,  298
3038,  298,  297, 1706
3039, 1707,  352,   12
3040,   12,  298, 1707
3041,   14,  345, 1708
3042, 1708,  404,   14
3043,  345,  344, 1709
3044, 1709, 1708,  345
3045,  344,  343, 1710
3046, 1710, 1709,  344
3047,  343,  342, 1711
3048, 1711, 1710,  343
3049,  342,  341, 1712
3050, 1712, 1711,  342
3051,  341,  340, 1713
3052, 1713, 1712,  341
3053,  340,  339, 1714
3054, 1714, 1713,  340
3055,  339,  338, 1715
3056, 1715, 1714,  339
3057,  338,  337, 1716
3058, 1716, 1715,  338
3059,  337,  336, 1717
3060, 1717, 1716,  337
3061,  336,  335, 1718
3062, 1718, 1717,  336
3063,  335,  334, 1719
3064, 1719, 1718,  335
3065,  334,  333, 1720
3066, 1720, 1719,  334
3067,  333,  332, 1721
3068, 1721, 1720,  333
3069,  332,  331, 1722
3070, 1722, 1721,  332
3071,  331,  330, 1723
3072, 1723, 1722,  331
3073,  330,  329, 1724
3074, 1724, 1723,  330
3075,  329,  328, 1725
3076, 1725, 1724,  329
3077,  328,  327, 1726
3078, 1726, 1725,  328
3079,  327,  326, 1727
3080, 1727, 1726,  327
3081,  326,  325, 1728
3082, 1728, 1727,  326
3083,  325,  324, 1729
3084, 1729, 1728,  325
3085,  324,  323, 1730
3086, 1730, 1729,  324
3087,  323,  322, 1731
3088, 1731, 1730,  323
3089,  322,  321, 1732
3090, 1732, 1731,  322
3091,  321,  320, 1733
3092, 1733, 1732,  321
3093,  320,  319, 1734
3094, 1734, 1733,  320
3095,  319,  318, 1735
3096, 1735, 1734,  319
3097,  318,  317, 1736
3098, 1736, 1735,  318
3099,  317,  316, 1737
3100, 1737, 1736,  317
3101,  316,  315, 1738
3102, 1738, 1737,  316
3103,  315,  314, 1739
3104, 1739, 1738,  315
3105,  314,  313, 1740
3106, 1740, 1739,  314
3107,  313,  312, 1741
3108, 1741, 1740,  313
3109,  312,  311, 1742
3110, 1742, 1741,  312
3111,  311,  310, 1743
3112, 1743, 1742,  311
3113,  310,  309, 1744
3114, 1744, 1743,  310
3115,  309,  308, 1745
3116, 1745, 1744,  309
3117,  308,  307, 1746
3118, 1746, 1745,  308
3119,  307,   13,  360
3120,  360, 1746,  307
3121,  404, 1708, 1747
3122, 1747,  403,  404
3123, 1708, 1709, 1748
3124, 1748, 1747, 1708
3125, 1709, 1710, 1749
3126, 1749, 1748, 1709
3127, 1710, 1711, 1750
3128, 1750, 1749, 1710
3129, 1711, 1712, 1751
3130, 1751, 1750, 1711
3131, 1712, 1713, 1752
3132, 1752, 1751, 1712
3133, 1713, 1714, 1753
3134, 1753, 1752, 1713
3135, 1714, 1715, 1754
3136, 1754, 1753, 1714
3137, 1715, 1716, 1755
3138, 1755, 1754, 1715
3139, 1716, 1717, 1756
3140, 1756, 1755, 1716
3141, 1717, 1718, 1757
3142, 1757, 1756, 1717
3143, 1718, 1719, 1758
3144, 1758, 1757, 1718
3145, 1719, 1720, 1759
3146, 1759, 1758, 1719
3147, 1720, 1721, 1760
3148, 1760, 1759, 1720
3149, 1721, 1722, 1761
3150, 1761, 1760, 1721
3151, 1722, 1723, 1762
3152, 1762, 1761, 1722
3153, 1723, 1724, 1763
3154, 1763, 1762, 1723
3155, 1724, 1725, 1764
3156, 1764, 1763, 1724
3157, 1725, 1726, 1765
3158, 1765, 1764, 1725
3159, 1726, 1727, 1766
3160, 1766, 1765, 1726
3161, 1727, 1728, 1767
3162, 1767, 1766, 1727
3163, 1728, 1729, 1768
3164, 1768, 1767, 1728
3165, 1729, 1730, 1769
3166, 1769, 1768, 1729
3167, 1730, 1731, 1770
3168, 1770, 1769, 1730
3169, 1731, 1732, 1771
3170, 1771, 1770, 1731
3171, 1732, 1733, 1772
3172, 1772, 1771, 1732
3173, 1733, 1734, 1773
3174, 1773, 1772, 1733
3175, 1734, 1735, 1774
3176, 1774, 1773, 1734
3177, 1735, 1736, 1775
3178, 1775, 1774, 1735
3179, 1736, 1737, 1776
3180, 1776, 1775, 1736
3181, 1737, 1738, 1777
3182, 1777, 1776, 1737
3183, 1738, 1739, 1778
3184, 1778, 1777, 1738
3185, 1739, 1740, 1779
3186, 1779, 1778, 1739
3187, 1740, 1741, 1780
3188, 1780, 1779, 1740
3189, 1741, 1742, 1781
3190, 1781, 1780, 1741
3191, 1742, 1743, 1782
3192, 1782, 1781, 1742
3193, 1743, 1744, 1783
3194, 1783, 1782, 1743
3195, 1744, 1745, 1784
3196, 1784, 1783, 1744
3197, 1745, 1746, 1785
3198, 1785, 1784, 1745
3199, 1746,  360,  361
3200,  361, 1785, 1746
3201,  403, 1747, 1786
3202, 1786,  402,  403
3203, 1747, 1748, 1787
3204, 1787, 1786, 1747
3205, 1748, 1749, 1788
3206, 1788, 1787, 1748
3207, 1749, 1750, 1789
3208, 1789, 1788, 1749
3209, 1750, 1751, 1790
3210, 1790, 1789, 1750
3211, 1751, 1752, 1791
3212, 1791, 1790, 1751
3213, 1752, 1753, 1792
3214, 1792, 1791, 1752
3215, 1753, 1754, 1793
3216, 1793, 1792, 1753
3217, 1754, 1755, 1794
3218, 1794, 1793, 1754
3219, 1755, 1756, 1795
3220, 1795, 1794, 1755
3221, 1756, 1757, 1796
3222, 1796, 1795, 1756
3223, 1757, 1758, 1797
3224, 1797, 1796, 1757
3225, 1758, 1759, 1798
3226, 1798, 1797, 1758
3227, 1759, 1760, 1799
3228, 1799, 1798, 1759
3229, 1760, 1761, 1800
3230, 1800, 1799, 1760
3231, 1761, 1762, 1801
3232, 1801, 1800, 1761
3233, 1762, 1763, 1802
3234, 1802, 1801, 1762
3235, 1763, 1764, 1803
3236, 1803, 1802, 1763
3237, 1764, 1765, 1804
3238, 1804, 1803, 1764
3239, 1765, 1766, 1805
3240, 1805, 1804, 1765
3241, 1766, 1767, 1806
3242, 1806, 1805, 1766
3243, 1767, 1768, 1807
3244, 1807, 1806, 1767
3245, 1768, 1769, 1808
3246, 1808, 1807, 1768
3247, 1769, 1770, 1809
3248, 1809, 1808, 1769
3249, 1770, 1771, 1810
3250, 1810, 1809, 1770
3251, 1771, 1772, 1811
3252, 1811, 1810, 1771
3253, 1772, 1773, 1812
3254, 1812, 1811, 1772
3255, 1773, 1774, 1813
3256, 1813, 1812, 1773
3257, 1774, 1775, 1814
3258, 1814, 1813, 1774
3259, 1775, 1776, 1815
3260, 1815, 1814, 1775
3261, 1776, 1777, 1816
3262, 1816, 1815, 1776
3263, 1777, 1778, 1817
3264, 1817, 1816, 1777
3265, 1778, 1779, 1818
3266, 1818, 1817, 1778
3267, 1779, 1780, 1819
3268, 1819, 1818, 1779
3269, 1780, 1781, 1820
3270, 1820, 1819, 1780
3271, 1781, 1782, 1821
3272, 1821, 1820, 1781
3273, 1782, 1783, 1822
3274, 1822, 1821, 1782
3275, 1783, 1784, 1823
3276, 1823, 1822, 1783
3277, 1784, 1785, 1824
3278, 1824, 1823, 1784
3279, 1785,  361,  362
3280,  362, 1824, 1785
3281,  402, 1786,  401
3282,  401,   16,  402
3283, 1786, 1787,  400
3284,  400,  401, 1786
3285, 1787, 1788,  399
3286,  399,  400, 1787
3287, 1788, 1789,  398
3288,  398,  399, 1788
3289, 1789, 1790,  397
3290,  397,  398, 1789
3291, 1790, 1791,  396
3292,  396,  397, 1790
3293, 1791, 1792,  395
3294,  395,  396, 1791
3295, 1792, 1793,  394
3296,  394,  395, 1792
3297, 1793, 1794,  393
3298,  393,  394, 1793
3299, 1794, 1795,  392
3300,  392,  393, 1794
3301, 1795, 1796,  391
3302,  391,  392, 1795
3303, 1796, 1797,  390
3304,  390,  391, 1796
3305, 1797, 1798,  389
3306,  389,  390, 1797
3307, 1798, 1799,  388
3308,  388,  389, 1798
3309, 1799, 1800,  387
3310,  387,  388, 1799
3311, 1800, 1801,  386
3312,  386,  387, 1800
3313, 1801, 1802,  385
3314,  385,  386, 1801
3315, 1802, 1803,  384
3316,  384,  385, 1802
3317, 1803, 1804,  383
3318,  383,  384, 1803
3319, 1804, 1805,  382
3320,  382,  383, 1804
3321, 1805, 1806,  381
3322,  381,  382, 1805
3323, 1806, 1807,  380
3324,  380,  381, 1806
3325, 1807, 1808,  379
3326,  379,  380, 1807
3327, 1808, 1809,  378
3328,  378,  379, 1808
3329, 1809, 1810,  377
3330,  377,  378, 1809
3331, 1810, 1811,  376
3332,  376,  377, 1810
3333, 1811, 1812,  375
3334,  375,  376, 1811
3335, 1812, 1813,  374
3336,  374,  375, 1812
3337, 1813, 1814,  373
3338,  373,  374, 1813
3339, 1814, 1815,  372
3340,  372,  373, 1814
3341, 1815, 1816,  371
3342,  371,  372, 1815
3343, 1816, 1817,  370
3344,  370,  371, 1816
3345, 1817, 1818,  369
3346,  369,  370, 1817
3347, 1818, 1819,  368
3348,  368,  369, 1818
3349, 1819, 1820,  367
3350,  367,  368, 1819
3351, 1820, 1821,  366
3352,  366,  367, 1820
3353, 1821, 1822,  365
3354,  365,  366, 1821
3355, 1822, 1823,  364
3356,  364,  365, 1822
3357, 1823, 1824,  363
3358,  363,  364, 1823
3359, 1824,  362,   15
3360,   15,  363, 1824
3361,  204,   20,    8
3362,  419,  204,  203
3363, 1886, 1856,  221
3364, 1886,  196, 1826
3365, 1886, 1826, 1856
3366,  408,  215,  214
3367,  418,  202,  417
3368,  416,  201,  200
3369,  415,  200,  199
3370,  415,  199,  414
3371,  414,  199,  198
3372,  414,  198,   19
3373,  198,  197,   19
3374,  197,  196,   19
3375, 1827, 1826,  195
3376, 1828, 1827,  194
3377, 1829, 1828,  193
3378, 1830, 1829,  192
3379, 1831, 1830,  191
3380, 1832, 1831,  190
3381, 1833, 1832,  189
3382, 1834, 1833,  188
3383, 1835, 1834,  187
3384, 1836, 1835,  186
3385, 1837, 1836,  185
3386, 1838, 1837,  184
3387, 1839, 1838,  183
3388, 1840, 1839,  182
3389, 1841, 1840,  181
3390, 1842, 1841,  180
3391, 1843, 1842,  179
3392, 1844, 1843,  178
3393, 1845, 1844,  177
3394, 1846, 1845,  176
3395, 1847, 1846,  175
3396, 1848, 1847,  174
3397, 1849, 1848,  173
3398, 1850, 1849,  172
3399, 1851, 1850,  171
3400, 1852, 1851,  170
3401, 1853, 1852,  169
3402, 1854, 1853,  168
3403, 1855,  166, 1825
3404, 1885,  251,  250
3405,  166,    7,  405
3406, 1825,  405,  406
3407,  251,  406,   10
3408,  213,    9,   17
3409,  407,  213,   17
3410,  407,  214,  213
3411,  408,  214,  407
3412,  409,  216,  215
3413,  411,  217,  410
3414,  412,  219,  218
3415,  220,  219,   18
3416,  221,  220,   18
3417, 1856, 1826, 1827
3418, 1857, 1827, 1828
3419, 1858, 1828, 1829
3420, 1859, 1829, 1830
3421, 1860, 1830, 1831
3422, 1861, 1831, 1832
3423, 1862, 1832, 1833
3424, 1863, 1833, 1834
3425, 1864, 1834, 1835
3426, 1865, 1835, 1836
3427, 1866, 1836, 1837
3428, 1867, 1837, 1838
3429, 1868, 1838, 1839
3430, 1869, 1839, 1840
3431, 1870, 1840, 1841
3432, 1871, 1841, 1842
3433, 1872, 1842, 1843
3434, 1873, 1843, 1844
3435, 1874, 1844, 1845
3436, 1875, 1845, 1846
3437, 1876, 1846, 1847
3438, 1877, 1847, 1848
3439, 1878, 1848, 1849
3440, 1879, 1849, 1850
3441, 1880, 1850, 1851
3442, 1881, 1851, 1852
3443, 1882, 1852, 1853
3444, 1883, 1853, 1854
3445, 1884, 1854, 1855
3446, 1885, 1884, 1855
3447,  409,  215,  408
3448,  410,  216,  409
3449,  216,  410,  217
3450,  217,  411,  218
3451,  411,  412,  218
3452,  412,  413,  219
3453,  413,   18,  219
3454,  416,  200,  415
3455,  417,  201,  416
3456,  201,  417,  202
3457,  202,  418,  203
3458,  418,  419,  203
3459,  419,  420,  204
3460,  420,   20,  204
3461, 1825,  166,  405
3462, 1825,  406,  251
3463, 1826,  196,  195
3464, 1827,  195,  194
3465, 1828,  194,  193
3466, 1857, 1856, 1827
3467, 1829,  193,  192
3468, 1858, 1857, 1828
3469, 1830,  192,  191
3470, 1859, 1858, 1829
3471, 1831,  191,  190
3472, 1860, 1859, 1830
3473, 1832,  190,  189
3474, 1861, 1860, 1831
3475, 1833,  189,  188
3476, 1862, 1861, 1832
3477, 1834,  188,  187
3478, 1863, 1862, 1833
3479, 1835,  187,  186
3480, 1864, 1863, 1834
3481, 1836,  186,  185
3482, 1865, 1864, 1835
3483, 1837,  185,  184
3484, 1866, 1865, 1836
3485, 1838,  184,  183
3486, 1867, 1866, 1837
3487, 1839,  183,  182
3488, 1868, 1867, 1838
3489, 1840,  182,  181
3490, 1869, 1868, 1839
3491, 1841,  181,  180
3492, 1870, 1869, 1840
3493, 1842,  180,  179
3494, 1871, 1870, 1841
3495, 1843,  179,  178
3496, 1872, 1871, 1842
3497, 1844,  178,  177
3498, 1873, 1872, 1843
3499, 1845,  177,  176
3500, 1874, 1873, 1844
3501, 1846,  176,  175
3502, 1875, 1874, 1845
3503, 1847,  175,  174
3504, 1876, 1875, 1846
3505, 1848,  174,  173
3506, 1877, 1876, 1847
3507, 1849,  173,  172
3508, 1878, 1877, 1848
3509, 1850,  172,  171
3510, 1879, 1878, 1849
3511, 1851,  171,  170
3512, 1880, 1879, 1850
3513, 1852,  170,  169
3514, 1881, 1880, 1851
3515, 1853,  169,  168
3516, 1882, 1881, 1852
3517, 1854,  168,  167
3518, 1883, 1882, 1853
3519, 1855, 1854,  167
3520, 1884, 1883, 1854
3521, 1855,  167,  166
3522, 1885, 1855, 1825
3523, 1856,  222,  221
3524, 1886,  221,   18
3525, 1857,  223,  222
3526, 1857,  222, 1856
3527, 1858,  224,  223
3528, 1858,  223, 1857
3529, 1859,  225,  224
3530, 1859,  224, 1858
3531, 1860,  226,  225
3532, 1860,  225, 1859
3533, 1861,  227,  226
3534, 1861,  226, 1860
3535, 1862,  228,  227
3536, 1862,  227, 1861
3537, 1863,  229,  228
3538, 1863,  228, 1862
3539, 1864,  230,  229
3540, 1864,  229, 1863
3541, 1865,  231,  230
3542, 1865,  230, 1864
3543, 1866,  232,  231
3544, 1866,  231, 1865
3545, 1867,  233,  232
3546, 1867,  232, 1866
3547, 1868,  234,  233
3548, 1868,  233, 1867
3549, 1869,  235,  234
3550, 1869,  234, 1868
3551, 1870,  236,  235
3552, 1870,  235, 1869
3553, 1871,  237,  236
3554, 1871,  236, 1870
3555, 1872,  238,  237
3556, 1872,  237, 1871
3557, 1873,  239,  238
3558, 1873,  238, 1872
3559, 1874,  240,  239
3560, 1874,  239, 1873
3561, 1875,  241,  240
3562, 1875,  240, 1874
3563, 1876,  242,  241
3564, 1876,  241, 1875
3565, 1877,  243,  242
3566, 1877,  242, 1876
3567, 1878,  244,  243
3568, 1878,  243, 1877
3569, 1879,  245,  244
3570, 1879,  244, 1878
3571, 1880,  246,  245
3572, 1880,  245, 1879
3573, 1881,  247,  246
3574, 1881,  246, 1880
3575, 1882,  248,  247
3576, 1882,  247, 1881
3577, 1883,  249,  248
3578, 1883,  248, 1882
3579, 1884,  250,  249
3580, 1884,  249, 1883
3581, 1885, 1825,  251
3582, 1885,  250, 1884
3583, 1886,   18,   19
3584, 1886,   19,  196
*Nset, nset=_G3, internal, generate
    1,  1886,     1
*Elset, elset=_G3, internal, generate
    1,  3584,     1
*Nset, nset=Support_Left
 14,
*Nset, nset=Support_Right
 2,
*Nset, nset=Load_Nodes
   7,  10, 405, 406
*Nset, nset=CMOD1
 17,
*Nset, nset=CMOD2
 20,
** Section: BeamSec
*Solid Section, elset=_G3, material=Concrete
50.,
*End Part
**  
**
** ASSEMBLY
**
*Assembly, name=Assembly
**  
*Instance, name=BeamInst, part=Beam2D
*End Instance
**  
*Nset, nset=CMOD1, instance=BeamInst
 17,
*Nset, nset=CMOD2, instance=BeamInst
 20,
*Nset, nset=Load_Nodes, instance=BeamInst
   7,  10, 405, 406
*Nset, nset=Support_Left, instance=BeamInst
 14,
*Nset, nset=Support_Right, instance=BeamInst
 2,
*End Assembly
** 
** MATERIALS
** 
*Material, name=Concrete
*Depvar
      2,
*User Material, constants=5
37000.,  0.2,  3.5, 0.09,  10.
** ----------------------------------------------------------------
** 
** STEP: Loading
** 
*Step, name=Loading, nlgeom=NO, inc=20000
*Static
0.0005, 1., 1e-10, 0.0005
** 
** BOUNDARY CONDITIONS
** 
** Name: BC_Load Type: Displacement/Rotation
*Boundary
Load_Nodes, 2, 2, -0.1
** Name: BC_SupL Type: Displacement/Rotation
*Boundary
Support_Left, 1, 1
Support_Left, 2, 2
** Name: BC_SupR Type: Displacement/Rotation
*Boundary
Support_Right, 2, 2
** 
** OUTPUT REQUESTS
** 
*Restart, write, frequency=0
** 
** FIELD OUTPUT: F-SDV
** 
*Output, field, frequency=100
*Element Output, directions=YES
SDV, 
** 
** HISTORY OUTPUT: H-CMOD1
** 
*Output, history
*Node Output, nset=CMOD1
U1, 
** 
** HISTORY OUTPUT: H-CMOD2
** 
*Node Output, nset=CMOD2
U1, 
** 
** HISTORY OUTPUT: H-Load
** 
*Node Output, nset=Load_Nodes
RF2, 
*End Step
